 vasp.5.3.5 31Mar14 (build Apr 25 2014 16:28:52) complex

 executed on             LinuxIFC date 2019.02.08  10:55:01

 INCAR:
 POTCAR:    PAW_PBE Ni 02Aug2007
 POTCAR:    PAW_PBE Ni 02Aug2007

 Optimization of the real space projectors (new method)

 maximal supplied QI-value         = 16.25
 optimisation between [QCUT,QGAM] = [ 13.49, 26.98] = [ 50.95,203.80] Ry
 Optimized for a Real-space Cutoff    1.32 Angstroem

   l    n(q)    QCUT    max X(q) W(low)/X(q) W(high)/X(q)  e(spline)
   2     10    13.489    60.317    0.17E-03    0.27E-03    0.16E-06
   2     10    13.489    55.921    0.17E-03    0.27E-03    0.16E-06
   0     11    13.489    51.690    0.11E-03    0.12E-04    0.77E-06
   0     11    13.489    30.015    0.97E-04    0.11E-04    0.70E-06
   1     10    13.489    18.849    0.11E-03    0.15E-03    0.23E-06
   1     10    13.489    14.624    0.88E-04    0.13E-03    0.19E-06
  PAW_PBE Ni 02Aug2007                  :

 POSCAR: Ni
  positions in direct lattice
  velocities in cartesian coordinates
 exchange correlation table for  LEXCH =        8
   RHO(1)=    0.500       N(1)  =     2000
   RHO(2)=  100.500       N(2)  =     4000

 ion  position               nearest neighbor table
   1  0.000  0.000  0.000-   2 2.48   3 2.48   4 2.48   4 2.48   2 2.48   3 2.48   3 2.48   4 2.48
                             2 2.48   3 2.48   2 2.48   4 2.48
   2  0.000  0.500  0.500-   1 2.48   3 2.48   4 2.48   4 2.48   3 2.48   1 2.48   4 2.48   1 2.48
                             3 2.48   3 2.48   4 2.48   1 2.48
   3  0.500  0.000  0.500-   1 2.48   2 2.48   4 2.48   4 2.48   2 2.48   1 2.48   4 2.48   1 2.48
                             2 2.48   4 2.48   2 2.48   1 2.48
   4  0.500  0.500  0.000-   1 2.48   2 2.48   3 2.48   3 2.48   2 2.48   1 2.48   3 2.48   1 2.48
                             2 2.48   3 2.48   2 2.48   1 2.48

  LATTYP: Found a simple cubic cell.
 ALAT       =     3.5004471029

  Lattice vectors:

 A1 = (   3.5004471029,   0.0000000000,   0.0000000000)
 A2 = (   0.0000000000,   3.5004471029,   0.0000000000)
 A3 = (   0.0000000000,   0.0000000000,   3.5004471029)

Analysis of symmetry for initial positions (statically):
 Subroutine PRICEL returns following result:

  LATTYP: Found a face centered cubic cell.
 ALAT       =     3.5004471029

[...]

   4 primitive cells build up your supercell.

 Routine SETGRP: Setting up the symmetry group for a
 simple cubic supercell.

 Subroutine GETGRP returns: Found 48 space group operations
 (whereof 48 operations were pure point group operations)
 out of a pool of 48 trial point group operations.

The static configuration has the point symmetry O_h .

Analysis of symmetry for dynamics (positions and initial velocities):
 Subroutine PRICEL returns following result:

[...]

 Routine SETGRP: Setting up the symmetry group for a
 simple cubic supercell.

 Subroutine GETGRP returns: Found 48 space group operations
 (whereof 48 operations were pure point group operations)
 out of a pool of 48 trial point group operations.

The dynamic configuration has the point symmetry O_h .

Analysis of magnetic symmetry:
 Subroutine PRICEL returns following result:

  LATTYP: Found a face centered cubic cell.
 ALAT       =     3.5004471029

  Lattice vectors:

 A1 = (   1.7502235514,   1.7502235514,   0.0000000000)
 A2 = (   1.7502235514,   0.0000000000,  -1.7502235514)
 A3 = (   0.0000000000,   1.7502235514,  -1.7502235514)

   4 primitive cells build up your supercell.

 Subroutine MAGSYM returns: Found 48 space group operations
 (whereof 48 operations were pure point group operations)
 out of a pool of 48 trial space group operations
 (whereof 48 operations were pure point group operations)
 and found also     4 'primitive' translations

The magnetic configuration has the point symmetry O_h .

 KPOINTS: K-POINTS

Automatic generation of k-mesh.
Space group operators:
 irot       det(A)        alpha          n_x          n_y          n_z        tau_x        tau_y        tau_z
    1     1.000000     0.000000     1.000000     0.000000     0.000000     0.000000     0.000000     0.000000
    2    -1.000000     0.000000     1.000000     0.000000     0.000000     0.000000     0.000000     0.000000
    3     1.000000   120.000000    -0.577350    -0.577350    -0.577350     0.000000     0.000000     0.000000
    4    -1.000000   120.000000    -0.577350    -0.577350    -0.577350     0.000000     0.000000     0.000000
    5     1.000000   120.000000     0.577350     0.577350     0.577350     0.000000     0.000000     0.000000
    6    -1.000000   120.000000     0.577350     0.577350     0.577350     0.000000     0.000000     0.000000
    7     1.000000    90.000000     0.000000     0.000000    -1.000000     0.000000     0.000000     0.000000
    8    -1.000000    90.000000     0.000000     0.000000    -1.000000     0.000000     0.000000     0.000000
    9     1.000000   180.000000     0.000000     0.707107     0.707107     0.000000     0.000000     0.000000
   10    -1.000000   180.000000     0.000000     0.707107     0.707107     0.000000     0.000000     0.000000
   11     1.000000    90.000000     0.000000     1.000000     0.000000     0.000000     0.000000     0.000000
   12    -1.000000    90.000000     0.000000     1.000000     0.000000     0.000000     0.000000     0.000000
   13     1.000000   180.000000     0.000000     0.000000     1.000000     0.000000     0.000000     0.000000
   14    -1.000000   180.000000     0.000000     0.000000     1.000000     0.000000     0.000000     0.000000
   15     1.000000   120.000000    -0.577350     0.577350     0.577350     0.000000     0.000000     0.000000
   16    -1.000000   120.000000    -0.577350     0.577350     0.577350     0.000000     0.000000     0.000000
   17     1.000000   120.000000    -0.577350     0.577350    -0.577350     0.000000     0.000000     0.000000
   18    -1.000000   120.000000    -0.577350     0.577350    -0.577350     0.000000     0.000000     0.000000
   19     1.000000    90.000000     0.000000     0.000000     1.000000     0.000000     0.000000     0.000000
   20    -1.000000    90.000000     0.000000     0.000000     1.000000     0.000000     0.000000     0.000000
   21     1.000000    90.000000    -1.000000     0.000000     0.000000     0.000000     0.000000     0.000000
   22    -1.000000    90.000000    -1.000000     0.000000     0.000000     0.000000     0.000000     0.000000
   23     1.000000   180.000000     0.707107     0.000000     0.707107     0.000000     0.000000     0.000000
   24    -1.000000   180.000000     0.707107     0.000000     0.707107     0.000000     0.000000     0.000000
   25     1.000000   120.000000     0.577350    -0.577350     0.577350     0.000000     0.000000     0.000000
   26    -1.000000   120.000000     0.577350    -0.577350     0.577350     0.000000     0.000000     0.000000
   27     1.000000   120.000000    -0.577350    -0.577350     0.577350     0.000000     0.000000     0.000000
   28    -1.000000   120.000000    -0.577350    -0.577350     0.577350     0.000000     0.000000     0.000000
   29     1.000000   180.000000     1.000000     0.000000     0.000000     0.000000     0.000000     0.000000
   30    -1.000000   180.000000     1.000000     0.000000     0.000000     0.000000     0.000000     0.000000
   31     1.000000    90.000000     0.000000    -1.000000     0.000000     0.000000     0.000000     0.000000
   32    -1.000000    90.000000     0.000000    -1.000000     0.000000     0.000000     0.000000     0.000000
   33     1.000000   180.000000     0.707107     0.707107     0.000000     0.000000     0.000000     0.000000
   34    -1.000000   180.000000     0.707107     0.707107     0.000000     0.000000     0.000000     0.000000
   35     1.000000    90.000000     1.000000     0.000000     0.000000     0.000000     0.000000     0.000000
   36    -1.000000    90.000000     1.000000     0.000000     0.000000     0.000000     0.000000     0.000000
   37     1.000000   120.000000     0.577350    -0.577350    -0.577350     0.000000     0.000000     0.000000
   38    -1.000000   120.000000     0.577350    -0.577350    -0.577350     0.000000     0.000000     0.000000
   39     1.000000   180.000000     0.000000     1.000000     0.000000     0.000000     0.000000     0.000000
   40    -1.000000   180.000000     0.000000     1.000000     0.000000     0.000000     0.000000     0.000000
   41     1.000000   120.000000     0.577350     0.577350    -0.577350     0.000000     0.000000     0.000000
   42    -1.000000   120.000000     0.577350     0.577350    -0.577350     0.000000     0.000000     0.000000
   43     1.000000   180.000000     0.000000    -0.707107     0.707107     0.000000     0.000000     0.000000
   44    -1.000000   180.000000     0.000000    -0.707107     0.707107     0.000000     0.000000     0.000000
   45     1.000000   180.000000     0.707107    -0.707107     0.000000     0.000000     0.000000     0.000000
   46    -1.000000   180.000000     0.707107    -0.707107     0.000000     0.000000     0.000000     0.000000
   47     1.000000   180.000000     0.707107     0.000000    -0.707107     0.000000     0.000000     0.000000
   48    -1.000000   180.000000     0.707107     0.000000    -0.707107     0.000000     0.000000     0.000000

 Subroutine IBZKPT returns following result:

 Found     56 irreducible k-points:

 Following reciprocal coordinates:
            Coordinates               Weight
  0.000000  0.000000  0.000000      1.000000
  0.090909  0.000000  0.000000      6.000000
  0.181818  0.000000  0.000000      6.000000
  0.272727  0.000000  0.000000      6.000000
  0.363636  0.000000  0.000000      6.000000
  0.454545  0.000000  0.000000      6.000000
  0.090909  0.090909  0.000000     12.000000
  0.181818  0.090909  0.000000     24.000000
  0.272727  0.090909  0.000000     24.000000
  0.363636  0.090909  0.000000     24.000000
  0.454545  0.090909  0.000000     24.000000
  0.181818  0.181818  0.000000     12.000000
  0.272727  0.181818  0.000000     24.000000
  0.363636  0.181818  0.000000     24.000000
  0.454545  0.181818  0.000000     24.000000
  0.272727  0.272727  0.000000     12.000000
  0.363636  0.272727  0.000000     24.000000
  0.454545  0.272727  0.000000     24.000000
  0.363636  0.363636  0.000000     12.000000
  0.454545  0.363636  0.000000     24.000000
  0.454545  0.454545  0.000000     12.000000
  0.090909  0.090909  0.090909      8.000000
  0.181818  0.090909  0.090909     24.000000
  0.272727  0.090909  0.090909     24.000000
  0.363636  0.090909  0.090909     24.000000
  0.454545  0.090909  0.090909     24.000000
  0.181818  0.181818  0.090909     24.000000
  0.272727  0.181818  0.090909     48.000000
  0.363636  0.181818  0.090909     48.000000
  0.454545  0.181818  0.090909     48.000000
  0.272727  0.272727  0.090909     24.000000
  0.363636  0.272727  0.090909     48.000000
  0.454545  0.272727  0.090909     48.000000
  0.363636  0.363636  0.090909     24.000000
  0.454545  0.363636  0.090909     48.000000
  0.454545  0.454545  0.090909     24.000000
  0.181818  0.181818  0.181818      8.000000
  0.272727  0.181818  0.181818     24.000000
  0.363636  0.181818  0.181818     24.000000
[...]
   0.36363636  0.09090909  0.09090909       0.018
   0.45454545  0.09090909  0.09090909       0.018
   0.18181818  0.18181818  0.09090909       0.018
   0.27272727  0.18181818  0.09090909       0.036
   0.36363636  0.18181818  0.09090909       0.036
   0.45454545  0.18181818  0.09090909       0.036
   0.27272727  0.27272727  0.09090909       0.018
   0.36363636  0.27272727  0.09090909       0.036
   0.45454545  0.27272727  0.09090909       0.036
   0.36363636  0.36363636  0.09090909       0.018
   0.45454545  0.36363636  0.09090909       0.036
   0.45454545  0.45454545  0.09090909       0.018
   0.18181818  0.18181818  0.18181818       0.006
   0.27272727  0.18181818  0.18181818       0.018
   0.36363636  0.18181818  0.18181818       0.018
   0.45454545  0.18181818  0.18181818       0.018
   0.27272727  0.27272727  0.18181818       0.018
   0.36363636  0.27272727  0.18181818       0.036
   0.45454545  0.27272727  0.18181818       0.036
   0.36363636  0.36363636  0.18181818       0.018
   0.45454545  0.36363636  0.18181818       0.036
   0.45454545  0.45454545  0.18181818       0.018
   0.27272727  0.27272727  0.27272727       0.006
   0.36363636  0.27272727  0.27272727       0.018
   0.45454545  0.27272727  0.27272727       0.018
   0.36363636  0.36363636  0.27272727       0.018
   0.45454545  0.36363636  0.27272727       0.036
   0.45454545  0.45454545  0.27272727       0.018
   0.36363636  0.36363636  0.36363636       0.006
   0.45454545  0.36363636  0.36363636       0.018
   0.45454545  0.45454545  0.36363636       0.018
   0.45454545  0.45454545  0.45454545       0.006

 position of ions in fractional coordinates (direct lattice)
   0.00000000  0.00000000  0.00000000
   0.00000000  0.50000000  0.50000000
   0.50000000  0.00000000  0.50000000
   0.50000000  0.50000000  0.00000000

 position of ions in cartesian coordinates  (Angst):
   0.00000000  0.00000000  0.00000000
   0.00000000  1.75022355  1.75022355
   1.75022355  0.00000000  1.75022355
   1.75022355  1.75022355  0.00000000

 k-point  1 :   0.0000 0.0000 0.0000  plane waves:    1839
 k-point  2 :   0.0909 0.0000 0.0000  plane waves:    1811
 k-point  3 :   0.1818 0.0000 0.0000  plane waves:    1815
 k-point  4 :   0.2727 0.0000 0.0000  plane waves:    1803
 k-point  5 :   0.3636 0.0000 0.0000  plane waves:    1807
 k-point  6 :   0.4545 0.0000 0.0000  plane waves:    1820
 k-point  7 :   0.0909 0.0909 0.0000  plane waves:    1813
 k-point  8 :   0.1818 0.0909 0.0000  plane waves:    1818
 k-point  9 :   0.2727 0.0909 0.0000  plane waves:    1806
 k-point 10 :   0.3636 0.0909 0.0000  plane waves:    1807
 k-point 11 :   0.4545 0.0909 0.0000  plane waves:    1812
 k-point 12 :   0.1818 0.1818 0.0000  plane waves:    1815
 k-point 13 :   0.2727 0.1818 0.0000  plane waves:    1809
 k-point 14 :   0.3636 0.1818 0.0000  plane waves:    1805
 k-point 15 :   0.4545 0.1818 0.0000  plane waves:    1810
 k-point 16 :   0.2727 0.2727 0.0000  plane waves:    1811
 k-point 17 :   0.3636 0.2727 0.0000  plane waves:    1810
 k-point 18 :   0.4545 0.2727 0.0000  plane waves:    1807
 k-point 19 :   0.3636 0.3636 0.0000  plane waves:    1804
 k-point 20 :   0.4545 0.3636 0.0000  plane waves:    1798
 k-point 21 :   0.4545 0.4545 0.0000  plane waves:    1786
 k-point 22 :   0.0909 0.0909 0.0909  plane waves:    1812
 k-point 23 :   0.1818 0.0909 0.0909  plane waves:    1817
 k-point 24 :   0.2727 0.0909 0.0909  plane waves:    1809
 k-point 25 :   0.3636 0.0909 0.0909  plane waves:    1809
 k-point 26 :   0.4545 0.0909 0.0909  plane waves:    1808
 k-point 27 :   0.1818 0.1818 0.0909  plane waves:    1812
 k-point 28 :   0.2727 0.1818 0.0909  plane waves:    1812
 k-point 29 :   0.3636 0.1818 0.0909  plane waves:    1807
 k-point 30 :   0.4545 0.1818 0.0909  plane waves:    1801
 k-point 31 :   0.2727 0.2727 0.0909  plane waves:    1812
 k-point 32 :   0.3636 0.2727 0.0909  plane waves:    1805
 k-point 33 :   0.4545 0.2727 0.0909  plane waves:    1801
 k-point 34 :   0.3636 0.3636 0.0909  plane waves:    1802
 k-point 35 :   0.4545 0.3636 0.0909  plane waves:    1795
 k-point 36 :   0.4545 0.4545 0.0909  plane waves:    1789
 k-point 37 :   0.1818 0.1818 0.1818  plane waves:    1815
 k-point 38 :   0.2727 0.1818 0.1818  plane waves:    1810
 k-point 39 :   0.3636 0.1818 0.1818  plane waves:    1812
 k-point 40 :   0.4545 0.1818 0.1818  plane waves:    1803
 k-point 41 :   0.2727 0.2727 0.1818  plane waves:    1816
 k-point 42 :   0.3636 0.2727 0.1818  plane waves:    1803
 k-point 43 :   0.4545 0.2727 0.1818  plane waves:    1797
 k-point 44 :   0.3636 0.3636 0.1818  plane waves:    1793
 k-point 45 :   0.4545 0.3636 0.1818  plane waves:    1789
 k-point 46 :   0.4545 0.4545 0.1818  plane waves:    1794
 k-point 47 :   0.2727 0.2727 0.2727  plane waves:    1803
 k-point 48 :   0.3636 0.2727 0.2727  plane waves:    1798
 k-point 49 :   0.4545 0.2727 0.2727  plane waves:    1795
 k-point 50 :   0.3636 0.3636 0.2727  plane waves:    1804
 k-point 51 :   0.4545 0.3636 0.2727  plane waves:    1795
 k-point 52 :   0.4545 0.4545 0.2727  plane waves:    1785
 k-point 53 :   0.3636 0.3636 0.3636  plane waves:    1790
 k-point 54 :   0.4545 0.3636 0.3636  plane waves:    1805
 k-point 55 :   0.4545 0.4545 0.3636  plane waves:    1810
 k-point 56 :   0.4545 0.4545 0.4545  plane waves:    1808

 maximum and minimum number of plane-waves per node :       323      288

 maximum number of plane-waves:      1839
 maximum index in each direction:
   IXMAX=    7   IYMAX=    7   IZMAX=    7
   IXMIN=   -8   IYMIN=   -7   IZMIN=   -7

 WARNING: aliasing errors must be expected set NGX to  32 to avoid them
 WARNING: aliasing errors must be expected set NGY to  30 to avoid them
 WARNING: aliasing errors must be expected set NGZ to  30 to avoid them
 aliasing errors are usually negligible using standard VASP settings
 and one can safely disregard these warnings

 real space projection operators:
  max/ min on nodes  :        294.19        248.62

 parallel 3D FFT for wavefunctions:
    minimum data exchange during FFTs selected (reduces bandwidth)
 parallel 3D FFT for charge:
    minimum data exchange during FFTs selected (reduces bandwidth)

 Broyden mixing: mesh for mixing (old mesh)
   NGX = 15   NGY = 15   NGZ = 15
  (NGX  = 48   NGY  = 48   NGZ  = 48)
  gives a total of   3375 points

 initial charge density was supplied:
 charge density of overlapping atoms calculated
 number of electron      40.0000000 magnetization       4.0000000
 keeping initial charge density in first step

 Maximum index for non-local projection operator          523
 Maximum index for augmentation-charges          795 (set IRDMAX)

 First call to EWALD:  gamma=   0.506
 Maximum number of real-space cells 3x 3x 3
 Maximum number of reciprocal cells 3x 3x 3

 FEWALD executed in parallel

----------------------------------------- Iteration    1(   1)  ---------------------------------------

 eigenvalue-minimisations  :  5904
 total energy-change (2. order) : 0.2875236E+03  (-0.2232266E+04)
 number of electron      40.0000000 magnetization       4.0000000
 augmentation part       40.0000000 magnetization       4.0000000

 Free energy of the ion-electron system (eV)
  alpha Z        PSCENC =       190.24554706
  Ewald energy   TEWEN  =     -3772.14891794
  -Hartree energ DENC   =      -971.32795164
  -exchange      EXHF   =         0.00000000
  -V(xc)+E(xc)   XCENC  =       127.29896098
  PAW double counting   =      3851.33269441    -4118.68284910
  entropy T*S    EENTRO =        -0.00040000
  eigenvalues    EBANDS =       670.11351767
  atomic energy  EATOM  =      4310.69299218
  free energy    TOTEN  =       287.52359362 eV

  energy without entropy =      287.52399361  energy(sigma->0) =      287.52372695

[...]

 eigenvalue-minimisations  :  5840
 total energy-change (2. order) :-0.2960991E+03  (-0.2874602E+03)
 number of electron      40.0000000 magnetization       4.0000000
 augmentation part       40.0000000 magnetization       4.0000000

[...]

 Broyden mixing:
  rms(total) = 0.20121E+01    rms(broyden)= 0.20121E+01
  rms(prec ) = 0.40790E+01
  weight for this iteration     100.00

[...]

 eigenvalues of (default mixing * dielectric matrix)
  average eigenvalue GAMMA=   0.6985
  0.6985

[...]

 eigenvalue-minimisations  :  6974
 total energy-change (2. order) :-0.5444368E-05  (-0.2010986E-05)
 number of electron      40.0000072 magnetization       2.5653624
 augmentation part       24.6381464 magnetization       2.4444787

[...]

 Broyden mixing:
  rms(total) = 0.21689E-03    rms(broyden)= 0.21689E-03
  rms(prec ) = 0.23378E-03
  weight for this iteration     100.00

 eigenvalues of (default mixing * dielectric matrix)
  average eigenvalue GAMMA=   1.2222
  2.6258  2.4575  1.1019  0.9578  0.7673  0.6078  0.6297  0.6297

[...]

----------------------------------------- Iteration    1(  14)  ---------------------------------------

 eigenvalue-minimisations  :  3439
 total energy-change (2. order) : 0.8980351E-07  (-0.1596680E-07)
 number of electron      40.0000072 magnetization       2.5656912
 augmentation part       24.6381708 magnetization       2.4449587

 Free energy of the ion-electron system (eV)
  alpha Z        PSCENC =       190.24554706
  Ewald energy   TEWEN  =     -3772.14891794
  -Hartree energ DENC   =      -888.01275713
  -exchange      EXHF   =         0.00000000
  -V(xc)+E(xc)   XCENC  =       123.01728847
  PAW double counting   =      4601.17986226    -4875.91880005
  entropy T*S    EENTRO =         0.00334094
  eigenvalues    EBANDS =       289.07743595
  atomic energy  EATOM  =      4310.69299218
  free energy    TOTEN  =       -21.86400826 eV

  energy without entropy =      -21.86734920  energy(sigma->0) =      -21.86512191

 average (electrostatic) potential at core
  the test charge radii are     0.9791
  (the norm of the test charge is              1.0000)
       1 -81.8271       2 -81.8271       3 -81.8271       4 -81.8271

 E-fermi :   9.5908     XC(G=0): -13.3415     alpha+bet :-16.7039

 spin component 1

 k-point     1 :       0.0000    0.0000    0.0000
  band No.  band energies     occupation
      1       0.4701      1.00000
      2       4.8338      1.00000
      3       4.8338      1.00000
      4       4.8338      1.00000
      5       5.3070      1.00000
      6       5.3070      1.00000
      7       5.3070      1.00000
      8       7.1078      1.00000
      9       7.1078      1.00000
     10       7.1078      1.00000
     11       8.2896      1.00000
     12       8.2896      1.00000
     13       9.0125      1.00000
     14       9.0125      1.00000
     15       9.0125      1.00000
     16       9.1115      1.00000
     17       9.1115      1.00000
     18       9.1115      1.00000
     19       9.1115      1.00000
     20       9.1115      1.00000
     21       9.1115      1.00000
     22      12.0384     -0.00000
     23      12.0384     -0.00000
     24      12.0384     -0.00000
     25      18.9222      0.00000
     26      18.9222      0.00000

[...]

 spin component 2

[...]

 k-point    56 :       0.4545    0.4545    0.4545
  band No.  band energies     occupation
      1       5.0376      1.00000
      2       5.1377      1.00000
      3       5.1377      1.00000
      4       5.1377      1.00000
      5       7.7126      1.00000
      6       7.7126      1.00000
      7       7.7126      1.00000
      8       7.7725      1.00000
      9       7.7725      1.00000
     10       7.7926      1.00000
     11       7.7926      1.00000
     12       7.7926      1.00000
     13       8.8205      1.00000
     14       8.8205      1.00000
     15       8.8205      1.00000
     16       8.9283      1.00000
     17       9.7098     -0.03526
     18       9.7098     -0.03526
     19       9.7450     -0.02578
     20       9.7450     -0.02578
     21       9.7450     -0.02578
     22      10.1617     -0.00000
     23      10.1617     -0.00000
     24      10.1617     -0.00000
     25      15.8329      0.00000
     26      15.8420      0.00000

 soft charge-density along one line, spin component           1
         0         1         2         3         4         5         6         7         8         9
 total charge-density along one line

 soft charge-density along one line, spin component           2
         0         1         2         3         4         5         6         7         8         9
 total charge-density along one line

------------------------ aborting loop because EDIFF is reached ----------------------------------------

 total charge

# of ion     s       p       d       tot
  1        0.504   0.511   8.321   9.336
  2        0.504   0.511   8.321   9.336
  3        0.504   0.511   8.321   9.336
  4        0.504   0.511   8.321   9.336
tot        2.017   2.043  33.283  37.344

 magnetization (x)

[...]

  DFT-D2 method for vdW energy calculation

  Parameters of vdW forcefield:
         C6(Jnm^6/mol)     R0(A)
   Ni       2.626          1.562

  IVDW =   1
  VDW_RADIUS =    40.000 A
  VDW_S6 =     0.750
  VDW_SR =     1.000
  VDW_D =    20.000
  LVDW_EWALD = F

  Number of pair interactions contributing to vdW energy:   62472
  Edisp (eV):   -0.45733

  FORCE on cell =-STRESS in cart. coord.  units (eV):
  Direction    XX          YY          ZZ          XY          YZ          ZX
  Alpha Z   190.24555   190.24555   190.24555
  Ewald   -1257.38353 -1257.38353 -1257.38353     0.00000    -0.00000    -0.00000
  Hartree   296.00608   296.00608   296.00608    -0.00000    -0.00000    -0.00000
  E(xc)    -220.36975  -220.36975  -220.36975    -0.00000    -0.00000    -0.00000
  Local       5.42688     5.42688     5.42688    -0.00000    -0.00000    -0.00000
  n-local   -27.04207   -34.02814   -29.07467     5.50356     3.15785     2.72161
  augment   704.04734   704.04734   704.04734     0.00000     0.00000     0.00000
  Kinetic   320.19763   311.08849   307.17712     1.97210     1.40742     0.76291
  Fock        0.00000     0.00000     0.00000     0.00000     0.00000     0.00000
  vdW        -0.66727    -0.66727    -0.66727    -0.00000     0.00000     0.00000
  Total       0.07810     0.07810     0.07810    -0.00000     0.00000     0.00000
  in kB       2.91719     2.91719     2.91719    -0.00000     0.00000     0.00000

 VOLUME and BASIS-vectors are now :
  energy-cutoff  :      700.00
  volume of cell :       42.89
      direct lattice vectors                 reciprocal lattice vectors
     3.500447103  0.000000000  0.000000000     0.285677792  0.000000000  0.000000000
     0.000000000  3.500447103  0.000000000     0.000000000  0.285677792  0.000000000
     0.000000000  0.000000000  3.500447103     0.000000000  0.000000000  0.285677792

  length of vectors
     3.500447103  3.500447103  3.500447103     0.285677792  0.285677792  0.285677792

 FORCES acting on ions
    electron-ion (+dipol)            ewald-force                    non-local-force                 convergence-correction
   -.105E-06 -.105E-06 -.105E-06   0.171E-06 0.171E-06 0.171E-06   -.827E-24 -.455E-23 -.290E-23   -.353E-09 -.353E-09 -.353E-09
   -.105E-06 0.108E-06 0.108E-06   0.171E-06 -.171E-06 -.171E-06   -.248E-23 0.331E-23 0.000E+00   -.353E-09 0.362E-09 0.362E-09
   0.108E-06 -.105E-06 0.108E-06   -.171E-06 0.171E-06 -.171E-06   0.827E-24 -.620E-23 0.248E-23   0.362E-09 -.353E-09 0.362E-09
   0.108E-06 0.108E-06 -.105E-06   -.171E-06 -.171E-06 0.171E-06   0.414E-23 0.827E-24 -.165E-23   0.362E-09 0.362E-09 -.353E-09
   0.627E-08 0.628E-08 0.629E-08   -.875E-15 0.457E-15 0.190E-14   0.165E-23 -.662E-23 -.207E-23   0.183E-10 0.183E-10 0.188E-10

 POSITION                                       TOTAL-FORCE (eV/Angst)
      0.00000      0.00000      0.00000         0.000000      0.000000      0.000000
      0.00000      1.75022      1.75022         0.000000      0.000000     -0.000000
      1.75022      0.00000      1.75022         0.000000      0.000000     -0.000000
      1.75022      1.75022      0.00000         0.000000      0.000000      0.000000
    total drift:                                0.000000      0.000000      0.000000

  FREE ENERGIE OF THE ION-ELECTRON SYSTEM (eV)
  free  energy   TOTEN  =       -22.32134165 eV

  energy  without entropy=      -22.32468259  energy(sigma->0) =      -22.32245530

 Quasi-Newton relaxation of ions (Broydens 2nd method)
  g(Force)  = 0.103E-51   g(Stress)= 0.441E-04

 Reset! Starting new Quasi-Newton update for ions

 reached required accuracy - stopping structural energy minimisation
 writing wavefunctions

 total charge

[...]

 magnetization (x)

# of ion     s       p       d       tot
  1       -0.005  -0.025   0.682   0.652
  2       -0.005  -0.025   0.682   0.652
  3       -0.005  -0.025   0.682   0.652
  4       -0.005  -0.025   0.682   0.652
tot       -0.022  -0.100   2.730   2.608