 vasp.5.3.5 31Mar14 (build Apr 25 2014 16:28:52) complex

 executed on             LinuxIFC date 2019.02.08  10:55:05

 INCAR:
 POTCAR:    PAW_PBE Pt 04Feb2005
 POTCAR:    PAW_PBE Pt 04Feb2005

 Optimization of the real space projectors (new method)

 maximal supplied QI-value         = 14.36
 optimisation between [QCUT,QGAM] = [ 13.50, 27.00] = [ 51.04,204.15] Ry
 Optimized for a Real-space Cutoff    1.40 Angstroem

   l    n(q)    QCUT    max X(q) W(low)/X(q) W(high)/X(q)  e(spline)
   2     10    13.500    66.195    0.11E-03    0.83E-04    0.20E-06
   2     10    13.500    64.643    0.12E-03    0.84E-04    0.21E-06
   0     11    13.500    95.520    0.50E-04    0.29E-04    0.27E-06
   0     11    13.500    63.403    0.48E-04    0.28E-04    0.26E-06
   1     11    13.500    19.961    0.39E-03    0.90E-03    0.32E-05
   1     11    13.500    13.289    0.32E-03    0.74E-03    0.27E-05
  PAW_PBE Pt 04Feb2005                  :

 POSCAR: Pt
  positions in direct lattice
  velocities in cartesian coordinates
 exchange correlation table for  LEXCH =        8
   RHO(1)=    0.500       N(1)  =     2000
   RHO(2)=  100.500       N(2)  =     4000

 ion  position               nearest neighbor table
   1  0.000  0.000  0.000-   2 2.80   3 2.80   4 2.80   2 2.80   3 2.80   2 2.80   4 2.80   2 2.80
                             3 2.80   4 2.80   3 2.80   4 2.80
   2  0.000  0.500  0.500-   1 2.80   3 2.80   4 2.80   1 2.80   4 2.80   1 2.80   3 2.80   1 2.80
                             3 2.80   4 2.80   4 2.80   3 2.80
   3  0.500  0.000  0.500-   1 2.80   2 2.80   4 2.80   1 2.80   4 2.80   2 2.80   4 2.80   4 2.80
                             1 2.80   2 2.80   1 2.80   2 2.80
   4  0.500  0.500  0.000-   1 2.80   2 2.80   3 2.80   2 2.80   3 2.80   1 2.80   3 2.80   3 2.80
                             1 2.80   2 2.80   2 2.80   1 2.80

  LATTYP: Found a simple cubic cell.
 ALAT       =     3.9541157948

  Lattice vectors:

 A1 = (   3.9541157948,   0.0000000000,   0.0000000000)
 A2 = (   0.0000000000,   3.9541157948,   0.0000000000)
 A3 = (   0.0000000000,   0.0000000000,   3.9541157948)

Analysis of symmetry for initial positions (statically):
 Subroutine PRICEL returns following result:

  LATTYP: Found a face centered cubic cell.
 ALAT       =     3.9541157948

[...]

   4 primitive cells build up your supercell.

 Routine SETGRP: Setting up the symmetry group for a
 simple cubic supercell.

 Subroutine GETGRP returns: Found 48 space group operations
 (whereof 48 operations were pure point group operations)
 out of a pool of 48 trial point group operations.

The static configuration has the point symmetry O_h .

Analysis of symmetry for dynamics (positions and initial velocities):
 Subroutine PRICEL returns following result:

  LATTYP: Found a face centered cubic cell.
 ALAT       =     3.9541157948

  Lattice vectors:

 A1 = (   1.9770578974,   1.9770578974,   0.0000000000)
 A2 = (   1.9770578974,   0.0000000000,  -1.9770578974)
 A3 = (   0.0000000000,   1.9770578974,  -1.9770578974)

   4 primitive cells build up your supercell.

 Routine SETGRP: Setting up the symmetry group for a
 simple cubic supercell.

 Subroutine GETGRP returns: Found 48 space group operations
 (whereof 48 operations were pure point group operations)
 out of a pool of 48 trial point group operations.

The dynamic configuration has the point symmetry O_h .

 KPOINTS: K-points

Automatic generation of k-mesh.
Space group operators:
 irot       det(A)        alpha          n_x          n_y          n_z        tau_x        tau_y        tau_z
    1     1.000000     0.000000     1.000000     0.000000     0.000000     0.000000     0.000000     0.000000
    2    -1.000000     0.000000     1.000000     0.000000     0.000000     0.000000     0.000000     0.000000
    3     1.000000   120.000000    -0.577350    -0.577350    -0.577350     0.000000     0.000000     0.000000
    4    -1.000000   120.000000    -0.577350    -0.577350    -0.577350     0.000000     0.000000     0.000000
    5     1.000000   120.000000     0.577350     0.577350     0.577350     0.000000     0.000000     0.000000
    6    -1.000000   120.000000     0.577350     0.577350     0.577350     0.000000     0.000000     0.000000
    7     1.000000    90.000000     0.000000     0.000000    -1.000000     0.000000     0.000000     0.000000
    8    -1.000000    90.000000     0.000000     0.000000    -1.000000     0.000000     0.000000     0.000000
    9     1.000000   180.000000     0.000000     0.707107     0.707107     0.000000     0.000000     0.000000
   10    -1.000000   180.000000     0.000000     0.707107     0.707107     0.000000     0.000000     0.000000
   11     1.000000    90.000000     0.000000     1.000000     0.000000     0.000000     0.000000     0.000000
   12    -1.000000    90.000000     0.000000     1.000000     0.000000     0.000000     0.000000     0.000000
   13     1.000000   180.000000     0.000000     0.000000     1.000000     0.000000     0.000000     0.000000
   14    -1.000000   180.000000     0.000000     0.000000     1.000000     0.000000     0.000000     0.000000
   15     1.000000   120.000000    -0.577350     0.577350     0.577350     0.000000     0.000000     0.000000
   16    -1.000000   120.000000    -0.577350     0.577350     0.577350     0.000000     0.000000     0.000000
   17     1.000000   120.000000    -0.577350     0.577350    -0.577350     0.000000     0.000000     0.000000
   18    -1.000000   120.000000    -0.577350     0.577350    -0.577350     0.000000     0.000000     0.000000
   19     1.000000    90.000000     0.000000     0.000000     1.000000     0.000000     0.000000     0.000000
   20    -1.000000    90.000000     0.000000     0.000000     1.000000     0.000000     0.000000     0.000000
   21     1.000000    90.000000    -1.000000     0.000000     0.000000     0.000000     0.000000     0.000000
   22    -1.000000    90.000000    -1.000000     0.000000     0.000000     0.000000     0.000000     0.000000
   23     1.000000   180.000000     0.707107     0.000000     0.707107     0.000000     0.000000     0.000000
   24    -1.000000   180.000000     0.707107     0.000000     0.707107     0.000000     0.000000     0.000000
   25     1.000000   120.000000     0.577350    -0.577350     0.577350     0.000000     0.000000     0.000000
   26    -1.000000   120.000000     0.577350    -0.577350     0.577350     0.000000     0.000000     0.000000
   27     1.000000   120.000000    -0.577350    -0.577350     0.577350     0.000000     0.000000     0.000000
   28    -1.000000   120.000000    -0.577350    -0.577350     0.577350     0.000000     0.000000     0.000000
   29     1.000000   180.000000     1.000000     0.000000     0.000000     0.000000     0.000000     0.000000
   30    -1.000000   180.000000     1.000000     0.000000     0.000000     0.000000     0.000000     0.000000
   31     1.000000    90.000000     0.000000    -1.000000     0.000000     0.000000     0.000000     0.000000
   32    -1.000000    90.000000     0.000000    -1.000000     0.000000     0.000000     0.000000     0.000000
   33     1.000000   180.000000     0.707107     0.707107     0.000000     0.000000     0.000000     0.000000
   34    -1.000000   180.000000     0.707107     0.707107     0.000000     0.000000     0.000000     0.000000
   35     1.000000    90.000000     1.000000     0.000000     0.000000     0.000000     0.000000     0.000000
   36    -1.000000    90.000000     1.000000     0.000000     0.000000     0.000000     0.000000     0.000000
   37     1.000000   120.000000     0.577350    -0.577350    -0.577350     0.000000     0.000000     0.000000
   38    -1.000000   120.000000     0.577350    -0.577350    -0.577350     0.000000     0.000000     0.000000
   39     1.000000   180.000000     0.000000     1.000000     0.000000     0.000000     0.000000     0.000000
   40    -1.000000   180.000000     0.000000     1.000000     0.000000     0.000000     0.000000     0.000000
   41     1.000000   120.000000     0.577350     0.577350    -0.577350     0.000000     0.000000     0.000000
   42    -1.000000   120.000000     0.577350     0.577350    -0.577350     0.000000     0.000000     0.000000
   43     1.000000   180.000000     0.000000    -0.707107     0.707107     0.000000     0.000000     0.000000
   44    -1.000000   180.000000     0.000000    -0.707107     0.707107     0.000000     0.000000     0.000000
   45     1.000000   180.000000     0.707107    -0.707107     0.000000     0.000000     0.000000     0.000000
   46    -1.000000   180.000000     0.707107    -0.707107     0.000000     0.000000     0.000000     0.000000
   47     1.000000   180.000000     0.707107     0.000000    -0.707107     0.000000     0.000000     0.000000
   48    -1.000000   180.000000     0.707107     0.000000    -0.707107     0.000000     0.000000     0.000000

 Subroutine IBZKPT returns following result:

 Found     56 irreducible k-points:

 Following reciprocal coordinates:
            Coordinates               Weight
  0.000000  0.000000  0.000000      1.000000
  0.090909  0.000000  0.000000      6.000000
  0.181818  0.000000  0.000000      6.000000
  0.272727  0.000000  0.000000      6.000000
  0.363636  0.000000  0.000000      6.000000
  0.454545  0.000000  0.000000      6.000000
  0.090909  0.090909  0.000000     12.000000
  0.181818  0.090909  0.000000     24.000000
  0.272727  0.090909  0.000000     24.000000
  0.363636  0.090909  0.000000     24.000000
  0.454545  0.090909  0.000000     24.000000
  0.181818  0.181818  0.000000     12.000000
  0.272727  0.181818  0.000000     24.000000
  0.363636  0.181818  0.000000     24.000000
  0.454545  0.181818  0.000000     24.000000
  0.272727  0.272727  0.000000     12.000000
  0.363636  0.272727  0.000000     24.000000
  0.454545  0.272727  0.000000     24.000000
  0.363636  0.363636  0.000000     12.000000
  0.454545  0.363636  0.000000     24.000000
  0.454545  0.454545  0.000000     12.000000
  0.090909  0.090909  0.090909      8.000000
  0.181818  0.090909  0.090909     24.000000
  0.272727  0.090909  0.090909     24.000000
  0.363636  0.090909  0.090909     24.000000
  0.454545  0.090909  0.090909     24.000000
  0.181818  0.181818  0.090909     24.000000
  0.272727  0.181818  0.090909     48.000000
  0.363636  0.181818  0.090909     48.000000
  0.454545  0.181818  0.090909     48.000000
  0.272727  0.272727  0.090909     24.000000
  0.363636  0.272727  0.090909     48.000000
  0.454545  0.272727  0.090909     48.000000
  0.363636  0.363636  0.090909     24.000000
  0.454545  0.363636  0.090909     48.000000
  0.454545  0.454545  0.090909     24.000000
  0.181818  0.181818  0.181818      8.000000
  0.272727  0.181818  0.181818     24.000000
  0.363636  0.181818  0.181818     24.000000
  0.454545  0.181818  0.181818     24.000000
  0.272727  0.272727  0.181818     24.000000
  0.363636  0.272727  0.181818     48.000000
  0.454545  0.272727  0.181818     48.000000
  0.363636  0.363636  0.181818     24.000000
  0.454545  0.363636  0.181818     48.000000
  0.454545  0.454545  0.181818     24.000000
  0.272727  0.272727  0.272727      8.000000
  0.363636  0.272727  0.272727     24.000000
[...]
   0.36363636  0.09090909  0.00000000       0.018
   0.45454545  0.09090909  0.00000000       0.018
   0.18181818  0.18181818  0.00000000       0.009
   0.27272727  0.18181818  0.00000000       0.018
   0.36363636  0.18181818  0.00000000       0.018
   0.45454545  0.18181818  0.00000000       0.018
   0.27272727  0.27272727  0.00000000       0.009
   0.36363636  0.27272727  0.00000000       0.018
   0.45454545  0.27272727  0.00000000       0.018
   0.36363636  0.36363636  0.00000000       0.009
   0.45454545  0.36363636  0.00000000       0.018
   0.45454545  0.45454545  0.00000000       0.009
   0.09090909  0.09090909  0.09090909       0.006
   0.18181818  0.09090909  0.09090909       0.018
   0.27272727  0.09090909  0.09090909       0.018
   0.36363636  0.09090909  0.09090909       0.018
   0.45454545  0.09090909  0.09090909       0.018
   0.18181818  0.18181818  0.09090909       0.018
   0.27272727  0.18181818  0.09090909       0.036
   0.36363636  0.18181818  0.09090909       0.036
   0.45454545  0.18181818  0.09090909       0.036
   0.27272727  0.27272727  0.09090909       0.018
   0.36363636  0.27272727  0.09090909       0.036
   0.45454545  0.27272727  0.09090909       0.036
   0.36363636  0.36363636  0.09090909       0.018
   0.45454545  0.36363636  0.09090909       0.036
   0.45454545  0.45454545  0.09090909       0.018
   0.18181818  0.18181818  0.18181818       0.006
   0.27272727  0.18181818  0.18181818       0.018
   0.36363636  0.18181818  0.18181818       0.018
   0.45454545  0.18181818  0.18181818       0.018
   0.27272727  0.27272727  0.18181818       0.018
   0.36363636  0.27272727  0.18181818       0.036
   0.45454545  0.27272727  0.18181818       0.036
   0.36363636  0.36363636  0.18181818       0.018
   0.45454545  0.36363636  0.18181818       0.036
   0.45454545  0.45454545  0.18181818       0.018
   0.27272727  0.27272727  0.27272727       0.006
   0.36363636  0.27272727  0.27272727       0.018
   0.45454545  0.27272727  0.27272727       0.018
   0.36363636  0.36363636  0.27272727       0.018
   0.45454545  0.36363636  0.27272727       0.036
   0.45454545  0.45454545  0.27272727       0.018
   0.36363636  0.36363636  0.36363636       0.006
   0.45454545  0.36363636  0.36363636       0.018
   0.45454545  0.45454545  0.36363636       0.018
   0.45454545  0.45454545  0.45454545       0.006

 position of ions in fractional coordinates (direct lattice)
   0.00000000  0.00000000  0.00000000
   0.00000000  0.50000000  0.50000000
   0.50000000  0.00000000  0.50000000
   0.50000000  0.50000000  0.00000000

 position of ions in cartesian coordinates  (Angst):
   0.00000000  0.00000000  0.00000000
   0.00000000  1.97705790  1.97705790
   1.97705790  0.00000000  1.97705790
   1.97705790  1.97705790  0.00000000

 k-point  1 :   0.0000 0.0000 0.0000  plane waves:    2553
 k-point  2 :   0.0909 0.0000 0.0000  plane waves:    2581
 k-point  3 :   0.1818 0.0000 0.0000  plane waves:    2605
 k-point  4 :   0.2727 0.0000 0.0000  plane waves:    2601
 k-point  5 :   0.3636 0.0000 0.0000  plane waves:    2605
 k-point  6 :   0.4545 0.0000 0.0000  plane waves:    2601
 k-point  7 :   0.0909 0.0909 0.0000  plane waves:    2592
 k-point  8 :   0.1818 0.0909 0.0000  plane waves:    2600
 k-point  9 :   0.2727 0.0909 0.0000  plane waves:    2601
 k-point 10 :   0.3636 0.0909 0.0000  plane waves:    2603
 k-point 11 :   0.4545 0.0909 0.0000  plane waves:    2612
 k-point 12 :   0.1818 0.1818 0.0000  plane waves:    2602
 k-point 13 :   0.2727 0.1818 0.0000  plane waves:    2615
 k-point 14 :   0.3636 0.1818 0.0000  plane waves:    2614
 k-point 15 :   0.4545 0.1818 0.0000  plane waves:    2606
 k-point 16 :   0.2727 0.2727 0.0000  plane waves:    2620
 k-point 17 :   0.3636 0.2727 0.0000  plane waves:    2606
 k-point 18 :   0.4545 0.2727 0.0000  plane waves:    2601
 k-point 19 :   0.3636 0.3636 0.0000  plane waves:    2594
 k-point 20 :   0.4545 0.3636 0.0000  plane waves:    2602
 k-point 21 :   0.4545 0.4545 0.0000  plane waves:    2602
 k-point 22 :   0.0909 0.0909 0.0909  plane waves:    2596
 k-point 23 :   0.1818 0.0909 0.0909  plane waves:    2607
 k-point 24 :   0.2727 0.0909 0.0909  plane waves:    2606
 k-point 25 :   0.3636 0.0909 0.0909  plane waves:    2612
 k-point 26 :   0.4545 0.0909 0.0909  plane waves:    2609
 k-point 27 :   0.1818 0.1818 0.0909  plane waves:    2615
 k-point 28 :   0.2727 0.1818 0.0909  plane waves:    2607
 k-point 29 :   0.3636 0.1818 0.0909  plane waves:    2604
 k-point 30 :   0.4545 0.1818 0.0909  plane waves:    2598
 k-point 31 :   0.2727 0.2727 0.0909  plane waves:    2607
 k-point 32 :   0.3636 0.2727 0.0909  plane waves:    2610
 k-point 33 :   0.4545 0.2727 0.0909  plane waves:    2599
 k-point 34 :   0.3636 0.3636 0.0909  plane waves:    2600
 k-point 35 :   0.4545 0.3636 0.0909  plane waves:    2599
 k-point 36 :   0.4545 0.4545 0.0909  plane waves:    2599
 k-point 37 :   0.1818 0.1818 0.1818  plane waves:    2614
 k-point 38 :   0.2727 0.1818 0.1818  plane waves:    2608
 k-point 39 :   0.3636 0.1818 0.1818  plane waves:    2606
 k-point 40 :   0.4545 0.1818 0.1818  plane waves:    2596
 k-point 41 :   0.2727 0.2727 0.1818  plane waves:    2599
 k-point 42 :   0.3636 0.2727 0.1818  plane waves:    2596
 k-point 43 :   0.4545 0.2727 0.1818  plane waves:    2593
 k-point 44 :   0.3636 0.3636 0.1818  plane waves:    2589
 k-point 45 :   0.4545 0.3636 0.1818  plane waves:    2595
 k-point 46 :   0.4545 0.4545 0.1818  plane waves:    2584
 k-point 47 :   0.2727 0.2727 0.2727  plane waves:    2593
 k-point 48 :   0.3636 0.2727 0.2727  plane waves:    2599
 k-point 49 :   0.4545 0.2727 0.2727  plane waves:    2586
 k-point 50 :   0.3636 0.3636 0.2727  plane waves:    2587
 k-point 51 :   0.4545 0.3636 0.2727  plane waves:    2590
 k-point 52 :   0.4545 0.4545 0.2727  plane waves:    2592
 k-point 53 :   0.3636 0.3636 0.3636  plane waves:    2599
 k-point 54 :   0.4545 0.3636 0.3636  plane waves:    2585
 k-point 55 :   0.4545 0.4545 0.3636  plane waves:    2575
 k-point 56 :   0.4545 0.4545 0.4545  plane waves:    2560

 maximum and minimum number of plane-waves per node :       446      414

 maximum number of plane-waves:      2620
 maximum index in each direction:
   IXMAX=    8   IYMAX=    8   IZMAX=    8
   IXMIN=   -8   IYMIN=   -8   IZMIN=   -8

 WARNING: aliasing errors must be expected set NGX to  34 to avoid them
 WARNING: aliasing errors must be expected set NGY to  34 to avoid them
 WARNING: aliasing errors must be expected set NGZ to  34 to avoid them
 aliasing errors are usually negligible using standard VASP settings
 and one can safely disregard these warnings

 real space projection operators:
  max/ min on nodes  :        408.09        302.91

 parallel 3D FFT for wavefunctions:
    minimum data exchange during FFTs selected (reduces bandwidth)
 parallel 3D FFT for charge:
    minimum data exchange during FFTs selected (reduces bandwidth)

 Broyden mixing: mesh for mixing (old mesh)
   NGX = 17   NGY = 17   NGZ = 17
  (NGX  = 56   NGY  = 56   NGZ  = 56)
  gives a total of   4913 points

 initial charge density was supplied:
 charge density of overlapping atoms calculated
 number of electron      40.0000000 magnetization
 keeping initial charge density in first step

 Maximum index for non-local projection operator          727
 Maximum index for augmentation-charges         2099 (set IRDMAX)

 First call to EWALD:  gamma=   0.448
 Maximum number of real-space cells 3x 3x 3
 Maximum number of reciprocal cells 3x 3x 3

 FEWALD executed in parallel

----------------------------------------- Iteration    1(   1)  ---------------------------------------

 eigenvalue-minimisations  :  2688
 total energy-change (2. order) : 0.3034033E+03  (-0.2504417E+04)
 number of electron      40.0000000 magnetization
 augmentation part       40.0000000 magnetization

 Free energy of the ion-electron system (eV)
  alpha Z        PSCENC =       246.01507788
  Ewald energy   TEWEN  =     -3339.35788343
  -Hartree energ DENC   =      -294.80979231
  -exchange      EXHF   =         0.00000000
  -V(xc)+E(xc)   XCENC  =        14.80776897
  PAW double counting   =      2784.49414171    -2671.36117993
  entropy T*S    EENTRO =        -0.00122004
  eigenvalues    EBANDS =       647.14984366
  atomic energy  EATOM  =      2916.46655117
  free energy    TOTEN  =       303.40330767 eV

  energy without entropy =      303.40452772  energy(sigma->0) =      303.40371436

[...]

 eigenvalue-minimisations  :  3288
 total energy-change (2. order) :-0.3205997E+03  (-0.3129100E+03)
 number of electron      40.0000000 magnetization
 augmentation part       40.0000000 magnetization

[...]

 Broyden mixing:
  rms(total) = 0.24038E+01    rms(broyden)= 0.24038E+01
  rms(prec ) = 0.29466E+01
  weight for this iteration     100.00

[...]

 eigenvalues of (default mixing * dielectric matrix)
  average eigenvalue GAMMA=   2.0011
  2.0011

[...]

 eigenvalue-minimisations  :  2726
 total energy-change (2. order) : 0.2386439E-02  (-0.6957798E-03)
 number of electron      40.0000019 magnetization
 augmentation part       12.3947789 magnetization

[...]

 Broyden mixing:
  rms(total) = 0.16224E-02    rms(broyden)= 0.16224E-02
  rms(prec ) = 0.20058E-02
  weight for this iteration     100.00

 eigenvalues of (default mixing * dielectric matrix)
  average eigenvalue GAMMA=   1.7280
  2.7033  2.5293  1.3723  1.0176  1.0176

[...]

----------------------------------------- Iteration    1(  11)  ---------------------------------------

 eigenvalue-minimisations  :  1417
 total energy-change (2. order) :-0.9163691E-06  (-0.4999956E-06)
 number of electron      40.0000019 magnetization
 augmentation part       12.3944043 magnetization

 Free energy of the ion-electron system (eV)
  alpha Z        PSCENC =       246.01507788
  Ewald energy   TEWEN  =     -3339.35788343
  -Hartree energ DENC   =      -254.02809093
  -exchange      EXHF   =         0.00000000
  -V(xc)+E(xc)   XCENC  =        13.32183173
  PAW double counting   =      3665.43992427    -3564.41205689
  entropy T*S    EENTRO =        -0.00437092
  eigenvalues    EBANDS =       292.16851985
  atomic energy  EATOM  =      2916.46655117
  free energy    TOTEN  =       -24.39049728 eV

  energy without entropy =      -24.38612636  energy(sigma->0) =      -24.38904030

 average (electrostatic) potential at core
  the test charge radii are     1.2059
  (the norm of the test charge is              1.0000)
       1 -63.2786       2 -63.2786       3 -63.2786       4 -63.2786

 E-fermi :  10.7701     XC(G=0): -13.3433     alpha+bet :-16.2113

 k-point     1 :       0.0000    0.0000    0.0000
  band No.  band energies     occupation
      1       0.8559      2.00000
      2       3.9920      2.00000
      3       3.9920      2.00000
      4       3.9920      2.00000
      5       4.4297      2.00000
      6       4.4297      2.00000
      7       4.4297      2.00000
      8       7.1554      2.00000
      9       7.1554      2.00000
     10       7.1554      2.00000
     11       9.2330      2.00000
     12       9.2330      2.00000
     13      10.8029      0.47571
     14      10.8029      0.47571
     15      10.8029      0.47571
     16      11.2617     -0.00000
     17      11.2617     -0.00000
     18      11.2617     -0.00000
     19      11.2617     -0.00000
     20      11.2617     -0.00000
     21      11.2617     -0.00000
     22      12.6274     -0.00000
     23      12.6274     -0.00000
     24      12.6274     -0.00000

[...]

 k-point    56 :       0.4545    0.4545    0.4545
  band No.  band energies     occupation
      1       3.7251      2.00000
      2       3.7907      2.00000
      3       3.7907      2.00000
      4       3.7907      2.00000
      5       7.0475      2.00000
      6       7.0475      2.00000
      7       7.0475      2.00000
      8       7.1214      2.00000
      9       7.1214      2.00000
     10       7.1571      2.00000
     11       7.1571      2.00000
     12       7.1571      2.00000
     13       9.7575      2.00000
     14       9.7575      2.00000
     15       9.7575      2.00000
     16      10.0321      2.00000
     17      10.7574      1.21333
     18      10.7574      1.21333
     19      10.8370      0.10290
     20      10.8370      0.10290
     21      10.8370      0.10290
     22      11.4813     -0.00000
     23      11.4813     -0.00000
     24      11.4813     -0.00000

 soft charge-density along one line, spin component           1
         0         1         2         3         4         5         6         7         8         9
 total charge-density along one line

------------------------ aborting loop because EDIFF is reached ----------------------------------------

 total charge

# of ion     s       p       d       tot
  1        0.626   0.581   8.028   9.235
  2        0.626   0.581   8.028   9.235
  3        0.626   0.581   8.028   9.235
  4        0.626   0.581   8.028   9.235
tot        2.503   2.326  32.110  36.938

  DFT-D2 method for vdW energy calculation

  Parameters of vdW forcefield:
         C6(Jnm^6/mol)     R0(A)
   Pt       7.000          1.750

  IVDW =   1
  VDW_RADIUS =    40.000 A
  VDW_S6 =     0.750
  VDW_SR =     1.000
  VDW_D =    20.000
  LVDW_EWALD = F

  Number of pair interactions contributing to vdW energy:   43480
  Edisp (eV):   -0.59462

  FORCE on cell =-STRESS in cart. coord.  units (eV):
  Direction    XX          YY          ZZ          XY          YZ          ZX
  Alpha Z   246.01508   246.01508   246.01508
  Ewald   -1113.11978 -1113.11978 -1113.11978    -0.00000    -0.00000     0.00000
  Hartree    84.66938    84.66938    84.66938    -0.00000    -0.00000    -0.00000
  E(xc)    -178.30410  -178.30410  -178.30410    -0.00000     0.00000     0.00000
  Local     145.88683   145.88683   145.88683    -0.00000     0.00000     0.00000
  n-local    34.26114    11.12438    22.30142    13.66130     9.28768     6.77841
  augment   210.39917   210.39917   210.39917     0.00000     0.00000     0.00000
  Kinetic   590.91306   578.84385   578.30542     7.36159    -0.26972     0.39775
  Fock        0.00000     0.00000     0.00000     0.00000     0.00000     0.00000
  vdW        -0.85370    -0.85370    -0.85370     0.00000    -0.00000    -0.00000
  Total      -0.05737    -0.05737    -0.05737     0.00000    -0.00000     0.00000
  in kB      -1.48667    -1.48667    -1.48667     0.00000    -0.00000     0.00000

 VOLUME and BASIS-vectors are now :
  energy-cutoff  :      700.00
  volume of cell :       61.82
      direct lattice vectors                 reciprocal lattice vectors
     3.954115795  0.000000000  0.000000000     0.252901041  0.000000000  0.000000000
     0.000000000  3.954115795  0.000000000     0.000000000  0.252901041  0.000000000
     0.000000000  0.000000000  3.954115795     0.000000000  0.000000000  0.252901041

  length of vectors
     3.954115795  3.954115795  3.954115795     0.252901041  0.252901041  0.252901041

 FORCES acting on ions
    electron-ion (+dipol)            ewald-force                    non-local-force                 convergence-correction
   -.354E-14 -.110E-14 -.506E-13   -.176E-13 -.110E-13 0.259E-14   0.000E+00 -.199E-22 0.000E+00   -.919E-14 0.497E-14 0.827E-14
   -.397E-14 0.167E-12 0.116E-12   -.181E-13 0.137E-13 0.446E-14   0.132E-22 0.265E-22 0.000E+00   -.939E-14 -.198E-13 -.238E-13
   0.167E-12 -.546E-14 0.303E-11   0.165E-13 -.152E-13 0.452E-14   0.000E+00 -.662E-23 0.529E-22   -.168E-14 0.478E-14 -.326E-13
   0.167E-12 0.146E-11 0.973E-12   0.160E-13 0.956E-14 -.916E-14   -.132E-22 0.579E-23 0.000E+00   -.289E-14 -.180E-13 0.570E-14
   0.326E-12 0.163E-11 0.407E-11   -.324E-14 -.296E-14 0.241E-14   0.000E+00 0.579E-23 0.529E-22   -.231E-13 -.280E-13 -.425E-13

 POSITION                                       TOTAL-FORCE (eV/Angst)
      0.00000      0.00000      0.00000        -0.000000      0.000000     -0.000000
      0.00000      1.97706      1.97706         0.000000      0.000000      0.000000
      1.97706      0.00000      1.97706         0.000000     -0.000000      0.000000
      1.97706      1.97706      0.00000        -0.000000     -0.000000     -0.000000
    total drift:                                0.000000      0.000000      0.000000

  FREE ENERGIE OF THE ION-ELECTRON SYSTEM (eV)
  free  energy   TOTEN  =       -24.98511335 eV

  energy  without entropy=      -24.98074243  energy(sigma->0) =      -24.98365637

 reached required accuracy - stopping structural energy minimisation
 writing wavefunctions

 total charge

# of ion     s       p       d       tot
  1        0.626   0.581   8.028   9.235
  2        0.626   0.581   8.028   9.235
  3        0.626   0.581   8.028   9.235
  4        0.626   0.581   8.028   9.235
tot        2.503   2.326  32.110  36.938