 vasp.5.3.5 31Mar14 (build Apr 25 2014 16:28:52) complex

 executed on             LinuxIFC date 2019.02.08  10:55:06

 INCAR:
 POTCAR:    PAW_PBE Pd 04Jan2005
 POTCAR:    PAW_PBE Pd 04Jan2005

 Optimization of the real space projectors (new method)

 maximal supplied QI-value         = 14.36
 optimisation between [QCUT,QGAM] = [ 13.50, 27.00] = [ 51.04,204.15] Ry
 Optimized for a Real-space Cutoff    1.40 Angstroem

   l    n(q)    QCUT    max X(q) W(low)/X(q) W(high)/X(q)  e(spline)
   2     10    13.500    59.108    0.13E-03    0.12E-04    0.45E-06
   2     10    13.500    58.101    0.13E-03    0.13E-04    0.45E-06
   0     11    13.500   102.235    0.37E-04    0.94E-05    0.58E-06
   0     11    13.500    58.388    0.34E-04    0.88E-05    0.55E-06
   1     11    13.500    22.191    0.41E-03    0.10E-02    0.35E-05
   1     11    13.500    15.590    0.34E-03    0.84E-03    0.29E-05
  PAW_PBE Pd 04Jan2005                  :

 POSCAR: Pd
  positions in direct lattice
  velocities in cartesian coordinates
 exchange correlation table for  LEXCH =        8
   RHO(1)=    0.500       N(1)  =     2000
   RHO(2)=  100.500       N(2)  =     4000

 ion  position               nearest neighbor table
   1  0.000  0.000  0.000-   3 2.78   4 2.78   3 2.78   4 2.78   3 2.78   4 2.78   3 2.78   4 2.78
                             2 2.78   2 2.78   2 2.78   2 2.78
   2  0.000  0.500  0.500-   3 2.78   4 2.78   4 2.78   3 2.78   3 2.78   4 2.78   4 2.78   3 2.78
                             1 2.78   1 2.78   1 2.78   1 2.78
   3  0.500  0.000  0.500-   1 2.78   2 2.78   1 2.78   2 2.78   1 2.78   2 2.78   1 2.78   2 2.78
                             4 2.78   4 2.78   4 2.78   4 2.78
   4  0.500  0.500  0.000-   1 2.78   2 2.78   2 2.78   1 2.78   1 2.78   2 2.78   2 2.78   1 2.78
                             3 2.78   3 2.78   3 2.78   3 2.78

  LATTYP: Found a simple cubic cell.
 ALAT       =     3.9271740364

  Lattice vectors:

 A1 = (   3.9271740364,   0.0000000000,   0.0000000000)
 A2 = (   0.0000000000,   3.9271740364,   0.0000000000)
 A3 = (   0.0000000000,   0.0000000000,   3.9271740364)

Analysis of symmetry for initial positions (statically):
 Subroutine PRICEL returns following result:

  LATTYP: Found a face centered cubic cell.
 ALAT       =     3.9271740364

[...]

   4 primitive cells build up your supercell.

 Routine SETGRP: Setting up the symmetry group for a
 simple cubic supercell.

 Subroutine GETGRP returns: Found 48 space group operations
 (whereof 48 operations were pure point group operations)
 out of a pool of 48 trial point group operations.

The static configuration has the point symmetry O_h .

Analysis of symmetry for dynamics (positions and initial velocities):
 Subroutine PRICEL returns following result:

  LATTYP: Found a face centered cubic cell.
 ALAT       =     3.9271740364

  Lattice vectors:

 A1 = (   1.9635870182,   1.9635870182,   0.0000000000)
 A2 = (   1.9635870182,   0.0000000000,  -1.9635870182)
 A3 = (   0.0000000000,   1.9635870182,  -1.9635870182)

   4 primitive cells build up your supercell.

 Routine SETGRP: Setting up the symmetry group for a
 simple cubic supercell.

 Subroutine GETGRP returns: Found 48 space group operations
 (whereof 48 operations were pure point group operations)
 out of a pool of 48 trial point group operations.

The dynamic configuration has the point symmetry O_h .

 KPOINTS: K-points

Automatic generation of k-mesh.
Space group operators:
 irot       det(A)        alpha          n_x          n_y          n_z        tau_x        tau_y        tau_z
    1     1.000000     0.000000     1.000000     0.000000     0.000000     0.000000     0.000000     0.000000
    2    -1.000000     0.000000     1.000000     0.000000     0.000000     0.000000     0.000000     0.000000
    3     1.000000   120.000000    -0.577350    -0.577350    -0.577350     0.000000     0.000000     0.000000
    4    -1.000000   120.000000    -0.577350    -0.577350    -0.577350     0.000000     0.000000     0.000000
    5     1.000000   120.000000     0.577350     0.577350     0.577350     0.000000     0.000000     0.000000
    6    -1.000000   120.000000     0.577350     0.577350     0.577350     0.000000     0.000000     0.000000
    7     1.000000    90.000000     0.000000     0.000000    -1.000000     0.000000     0.000000     0.000000
    8    -1.000000    90.000000     0.000000     0.000000    -1.000000     0.000000     0.000000     0.000000
    9     1.000000   180.000000     0.000000     0.707107     0.707107     0.000000     0.000000     0.000000
   10    -1.000000   180.000000     0.000000     0.707107     0.707107     0.000000     0.000000     0.000000
   11     1.000000    90.000000     0.000000     1.000000     0.000000     0.000000     0.000000     0.000000
   12    -1.000000    90.000000     0.000000     1.000000     0.000000     0.000000     0.000000     0.000000
   13     1.000000   180.000000     0.000000     0.000000     1.000000     0.000000     0.000000     0.000000
   14    -1.000000   180.000000     0.000000     0.000000     1.000000     0.000000     0.000000     0.000000
   15     1.000000   120.000000    -0.577350     0.577350     0.577350     0.000000     0.000000     0.000000
   16    -1.000000   120.000000    -0.577350     0.577350     0.577350     0.000000     0.000000     0.000000
   17     1.000000   120.000000    -0.577350     0.577350    -0.577350     0.000000     0.000000     0.000000
   18    -1.000000   120.000000    -0.577350     0.577350    -0.577350     0.000000     0.000000     0.000000
   19     1.000000    90.000000     0.000000     0.000000     1.000000     0.000000     0.000000     0.000000
   20    -1.000000    90.000000     0.000000     0.000000     1.000000     0.000000     0.000000     0.000000
   21     1.000000    90.000000    -1.000000     0.000000     0.000000     0.000000     0.000000     0.000000
   22    -1.000000    90.000000    -1.000000     0.000000     0.000000     0.000000     0.000000     0.000000
   23     1.000000   180.000000     0.707107     0.000000     0.707107     0.000000     0.000000     0.000000
   24    -1.000000   180.000000     0.707107     0.000000     0.707107     0.000000     0.000000     0.000000
   25     1.000000   120.000000     0.577350    -0.577350     0.577350     0.000000     0.000000     0.000000
   26    -1.000000   120.000000     0.577350    -0.577350     0.577350     0.000000     0.000000     0.000000
   27     1.000000   120.000000    -0.577350    -0.577350     0.577350     0.000000     0.000000     0.000000
   28    -1.000000   120.000000    -0.577350    -0.577350     0.577350     0.000000     0.000000     0.000000
   29     1.000000   180.000000     1.000000     0.000000     0.000000     0.000000     0.000000     0.000000
   30    -1.000000   180.000000     1.000000     0.000000     0.000000     0.000000     0.000000     0.000000
   31     1.000000    90.000000     0.000000    -1.000000     0.000000     0.000000     0.000000     0.000000
   32    -1.000000    90.000000     0.000000    -1.000000     0.000000     0.000000     0.000000     0.000000
   33     1.000000   180.000000     0.707107     0.707107     0.000000     0.000000     0.000000     0.000000
   34    -1.000000   180.000000     0.707107     0.707107     0.000000     0.000000     0.000000     0.000000
   35     1.000000    90.000000     1.000000     0.000000     0.000000     0.000000     0.000000     0.000000
   36    -1.000000    90.000000     1.000000     0.000000     0.000000     0.000000     0.000000     0.000000
   37     1.000000   120.000000     0.577350    -0.577350    -0.577350     0.000000     0.000000     0.000000
   38    -1.000000   120.000000     0.577350    -0.577350    -0.577350     0.000000     0.000000     0.000000
   39     1.000000   180.000000     0.000000     1.000000     0.000000     0.000000     0.000000     0.000000
   40    -1.000000   180.000000     0.000000     1.000000     0.000000     0.000000     0.000000     0.000000
   41     1.000000   120.000000     0.577350     0.577350    -0.577350     0.000000     0.000000     0.000000
   42    -1.000000   120.000000     0.577350     0.577350    -0.577350     0.000000     0.000000     0.000000
   43     1.000000   180.000000     0.000000    -0.707107     0.707107     0.000000     0.000000     0.000000
   44    -1.000000   180.000000     0.000000    -0.707107     0.707107     0.000000     0.000000     0.000000
   45     1.000000   180.000000     0.707107    -0.707107     0.000000     0.000000     0.000000     0.000000
   46    -1.000000   180.000000     0.707107    -0.707107     0.000000     0.000000     0.000000     0.000000
   47     1.000000   180.000000     0.707107     0.000000    -0.707107     0.000000     0.000000     0.000000
   48    -1.000000   180.000000     0.707107     0.000000    -0.707107     0.000000     0.000000     0.000000

 Subroutine IBZKPT returns following result:

 Found     56 irreducible k-points:

 Following reciprocal coordinates:
            Coordinates               Weight
  0.000000  0.000000  0.000000      1.000000
  0.090909  0.000000  0.000000      6.000000
  0.181818  0.000000  0.000000      6.000000
  0.272727  0.000000  0.000000      6.000000
  0.363636  0.000000  0.000000      6.000000
  0.454545  0.000000  0.000000      6.000000
  0.090909  0.090909  0.000000     12.000000
  0.181818  0.090909  0.000000     24.000000
  0.272727  0.090909  0.000000     24.000000
  0.363636  0.090909  0.000000     24.000000
  0.454545  0.090909  0.000000     24.000000
  0.181818  0.181818  0.000000     12.000000
  0.272727  0.181818  0.000000     24.000000
  0.363636  0.181818  0.000000     24.000000
  0.454545  0.181818  0.000000     24.000000
  0.272727  0.272727  0.000000     12.000000
  0.363636  0.272727  0.000000     24.000000
  0.454545  0.272727  0.000000     24.000000
  0.363636  0.363636  0.000000     12.000000
  0.454545  0.363636  0.000000     24.000000
  0.454545  0.454545  0.000000     12.000000
  0.090909  0.090909  0.090909      8.000000
  0.181818  0.090909  0.090909     24.000000
  0.272727  0.090909  0.090909     24.000000
  0.363636  0.090909  0.090909     24.000000
  0.454545  0.090909  0.090909     24.000000
  0.181818  0.181818  0.090909     24.000000
  0.272727  0.181818  0.090909     48.000000
  0.363636  0.181818  0.090909     48.000000
  0.454545  0.181818  0.090909     48.000000
  0.272727  0.272727  0.090909     24.000000
  0.363636  0.272727  0.090909     48.000000
  0.454545  0.272727  0.090909     48.000000
  0.363636  0.363636  0.090909     24.000000
  0.454545  0.363636  0.090909     48.000000
  0.454545  0.454545  0.090909     24.000000
  0.181818  0.181818  0.181818      8.000000
  0.272727  0.181818  0.181818     24.000000
  0.363636  0.181818  0.181818     24.000000
  0.454545  0.181818  0.181818     24.000000
  0.272727  0.272727  0.181818     24.000000
  0.363636  0.272727  0.181818     48.000000
  0.454545  0.272727  0.181818     48.000000
  0.363636  0.363636  0.181818     24.000000
  0.454545  0.363636  0.181818     48.000000
  0.454545  0.454545  0.181818     24.000000
  0.272727  0.272727  0.272727      8.000000
  0.363636  0.272727  0.272727     24.000000
[...]
   0.27272727  0.09090909  0.00000000       0.018
   0.36363636  0.09090909  0.00000000       0.018
   0.45454545  0.09090909  0.00000000       0.018
   0.18181818  0.18181818  0.00000000       0.009
   0.27272727  0.18181818  0.00000000       0.018
   0.36363636  0.18181818  0.00000000       0.018
   0.45454545  0.18181818  0.00000000       0.018
   0.27272727  0.27272727  0.00000000       0.009
   0.36363636  0.27272727  0.00000000       0.018
   0.45454545  0.27272727  0.00000000       0.018
   0.36363636  0.36363636  0.00000000       0.009
   0.45454545  0.36363636  0.00000000       0.018
   0.45454545  0.45454545  0.00000000       0.009
   0.09090909  0.09090909  0.09090909       0.006
   0.18181818  0.09090909  0.09090909       0.018
   0.27272727  0.09090909  0.09090909       0.018
   0.36363636  0.09090909  0.09090909       0.018
   0.45454545  0.09090909  0.09090909       0.018
   0.18181818  0.18181818  0.09090909       0.018
   0.27272727  0.18181818  0.09090909       0.036
   0.36363636  0.18181818  0.09090909       0.036
   0.45454545  0.18181818  0.09090909       0.036
   0.27272727  0.27272727  0.09090909       0.018
   0.36363636  0.27272727  0.09090909       0.036
   0.45454545  0.27272727  0.09090909       0.036
   0.36363636  0.36363636  0.09090909       0.018
   0.45454545  0.36363636  0.09090909       0.036
   0.45454545  0.45454545  0.09090909       0.018
   0.18181818  0.18181818  0.18181818       0.006
   0.27272727  0.18181818  0.18181818       0.018
   0.36363636  0.18181818  0.18181818       0.018
   0.45454545  0.18181818  0.18181818       0.018
   0.27272727  0.27272727  0.18181818       0.018
   0.36363636  0.27272727  0.18181818       0.036
   0.45454545  0.27272727  0.18181818       0.036
   0.36363636  0.36363636  0.18181818       0.018
   0.45454545  0.36363636  0.18181818       0.036
   0.45454545  0.45454545  0.18181818       0.018
   0.27272727  0.27272727  0.27272727       0.006
   0.36363636  0.27272727  0.27272727       0.018
   0.45454545  0.27272727  0.27272727       0.018
   0.36363636  0.36363636  0.27272727       0.018
   0.45454545  0.36363636  0.27272727       0.036
   0.45454545  0.45454545  0.27272727       0.018
   0.36363636  0.36363636  0.36363636       0.006
   0.45454545  0.36363636  0.36363636       0.018
   0.45454545  0.45454545  0.36363636       0.018
   0.45454545  0.45454545  0.45454545       0.006

 position of ions in fractional coordinates (direct lattice)
   0.00000000  0.00000000  0.00000000
   0.00000000  0.50000000  0.50000000
   0.50000000  0.00000000  0.50000000
   0.50000000  0.50000000  0.00000000

 position of ions in cartesian coordinates  (Angst):
   0.00000000  0.00000000  0.00000000
   0.00000000  1.96358702  1.96358702
   1.96358702  0.00000000  1.96358702
   1.96358702  1.96358702  0.00000000

 k-point  1 :   0.0000 0.0000 0.0000  plane waves:    2517
 k-point  2 :   0.0909 0.0000 0.0000  plane waves:    2537
 k-point  3 :   0.1818 0.0000 0.0000  plane waves:    2541
 k-point  4 :   0.2727 0.0000 0.0000  plane waves:    2545
 k-point  5 :   0.3636 0.0000 0.0000  plane waves:    2553
 k-point  6 :   0.4545 0.0000 0.0000  plane waves:    2557
 k-point  7 :   0.0909 0.0909 0.0000  plane waves:    2540
 k-point  8 :   0.1818 0.0909 0.0000  plane waves:    2554
 k-point  9 :   0.2727 0.0909 0.0000  plane waves:    2557
 k-point 10 :   0.3636 0.0909 0.0000  plane waves:    2547
 k-point 11 :   0.4545 0.0909 0.0000  plane waves:    2551
 k-point 12 :   0.1818 0.1818 0.0000  plane waves:    2560
 k-point 13 :   0.2727 0.1818 0.0000  plane waves:    2558
 k-point 14 :   0.3636 0.1818 0.0000  plane waves:    2558
 k-point 15 :   0.4545 0.1818 0.0000  plane waves:    2550
 k-point 16 :   0.2727 0.2727 0.0000  plane waves:    2556
 k-point 17 :   0.3636 0.2727 0.0000  plane waves:    2556
 k-point 18 :   0.4545 0.2727 0.0000  plane waves:    2560
 k-point 19 :   0.3636 0.3636 0.0000  plane waves:    2562
 k-point 20 :   0.4545 0.3636 0.0000  plane waves:    2553
 k-point 21 :   0.4545 0.4545 0.0000  plane waves:    2532
 k-point 22 :   0.0909 0.0909 0.0909  plane waves:    2544
 k-point 23 :   0.1818 0.0909 0.0909  plane waves:    2551
 k-point 24 :   0.2727 0.0909 0.0909  plane waves:    2545
 k-point 25 :   0.3636 0.0909 0.0909  plane waves:    2546
 k-point 26 :   0.4545 0.0909 0.0909  plane waves:    2544
 k-point 27 :   0.1818 0.1818 0.0909  plane waves:    2552
 k-point 28 :   0.2727 0.1818 0.0909  plane waves:    2557
 k-point 29 :   0.3636 0.1818 0.0909  plane waves:    2561
 k-point 30 :   0.4545 0.1818 0.0909  plane waves:    2551
 k-point 31 :   0.2727 0.2727 0.0909  plane waves:    2562
 k-point 32 :   0.3636 0.2727 0.0909  plane waves:    2551
 k-point 33 :   0.4545 0.2727 0.0909  plane waves:    2552
 k-point 34 :   0.3636 0.3636 0.0909  plane waves:    2547
 k-point 35 :   0.4545 0.3636 0.0909  plane waves:    2553
 k-point 36 :   0.4545 0.4545 0.0909  plane waves:    2539
 k-point 37 :   0.1818 0.1818 0.1818  plane waves:    2560
 k-point 38 :   0.2727 0.1818 0.1818  plane waves:    2545
 k-point 39 :   0.3636 0.1818 0.1818  plane waves:    2552
 k-point 40 :   0.4545 0.1818 0.1818  plane waves:    2541
 k-point 41 :   0.2727 0.2727 0.1818  plane waves:    2547
 k-point 42 :   0.3636 0.2727 0.1818  plane waves:    2542
 k-point 43 :   0.4545 0.2727 0.1818  plane waves:    2540
 k-point 44 :   0.3636 0.3636 0.1818  plane waves:    2541
 k-point 45 :   0.4545 0.3636 0.1818  plane waves:    2544
 k-point 46 :   0.4545 0.4545 0.1818  plane waves:    2542
 k-point 47 :   0.2727 0.2727 0.2727  plane waves:    2542
 k-point 48 :   0.3636 0.2727 0.2727  plane waves:    2535
 k-point 49 :   0.4545 0.2727 0.2727  plane waves:    2545
 k-point 50 :   0.3636 0.3636 0.2727  plane waves:    2536
 k-point 51 :   0.4545 0.3636 0.2727  plane waves:    2528
 k-point 52 :   0.4545 0.4545 0.2727  plane waves:    2526
 k-point 53 :   0.3636 0.3636 0.3636  plane waves:    2518
 k-point 54 :   0.4545 0.3636 0.3636  plane waves:    2531
 k-point 55 :   0.4545 0.4545 0.3636  plane waves:    2514
 k-point 56 :   0.4545 0.4545 0.4545  plane waves:    2518

 maximum and minimum number of plane-waves per node :       442      396

 maximum number of plane-waves:      2562
 maximum index in each direction:
   IXMAX=    8   IYMAX=    8   IZMAX=    8
   IXMIN=   -8   IYMIN=   -8   IZMIN=   -8

 WARNING: aliasing errors must be expected set NGX to  34 to avoid them
 WARNING: aliasing errors must be expected set NGY to  34 to avoid them
 WARNING: aliasing errors must be expected set NGZ to  34 to avoid them
 aliasing errors are usually negligible using standard VASP settings
 and one can safely disregard these warnings

 real space projection operators:
  max/ min on nodes  :        414.84        307.41

 parallel 3D FFT for wavefunctions:
    minimum data exchange during FFTs selected (reduces bandwidth)
 parallel 3D FFT for charge:
    minimum data exchange during FFTs selected (reduces bandwidth)

 Broyden mixing: mesh for mixing (old mesh)
   NGX = 17   NGY = 17   NGZ = 17
  (NGX  = 56   NGY  = 56   NGZ  = 56)
  gives a total of   4913 points

 initial charge density was supplied:
 charge density of overlapping atoms calculated
 number of electron      40.0000000 magnetization
 keeping initial charge density in first step

 Maximum index for non-local projection operator          747
 Maximum index for augmentation-charges         1735 (set IRDMAX)

 First call to EWALD:  gamma=   0.451
 Maximum number of real-space cells 3x 3x 3
 Maximum number of reciprocal cells 3x 3x 3

 FEWALD executed in parallel

----------------------------------------- Iteration    1(   1)  ---------------------------------------

 eigenvalue-minimisations  :  2688
 total energy-change (2. order) : 0.3080586E+03  (-0.2469379E+04)
 number of electron      40.0000000 magnetization
 augmentation part       40.0000000 magnetization

 Free energy of the ion-electron system (eV)
  alpha Z        PSCENC =       172.17182311
  Ewald energy   TEWEN  =     -3362.26702177
  -Hartree energ DENC   =      -503.50988759
  -exchange      EXHF   =         0.00000000
  -V(xc)+E(xc)   XCENC  =      -116.81263613
  PAW double counting   =      3226.95325816    -2978.06409795
  entropy T*S    EENTRO =        -0.00022887
  eigenvalues    EBANDS =       630.57930344
  atomic energy  EATOM  =      3239.00805526
  free energy    TOTEN  =       308.05856765 eV

  energy without entropy =      308.05879653  energy(sigma->0) =      308.05864395

[...]

 eigenvalue-minimisations  :  3176
 total energy-change (2. order) :-0.3229604E+03  (-0.3146080E+03)
 number of electron      40.0000000 magnetization
 augmentation part       40.0000000 magnetization

[...]

 Broyden mixing:
  rms(total) = 0.14414E+01    rms(broyden)= 0.14414E+01
  rms(prec ) = 0.21204E+01
  weight for this iteration     100.00

[...]

 eigenvalues of (default mixing * dielectric matrix)
  average eigenvalue GAMMA=   1.5457
  1.5457

[...]

 eigenvalue-minimisations  :  1711
 total energy-change (2. order) :-0.2302018E-04  (-0.3400618E-05)
 number of electron      39.9999981 magnetization
 augmentation part       16.7760019 magnetization

 Broyden mixing:
  rms(total) = 0.18485E-02    rms(broyden)= 0.18485E-02
  rms(prec ) = 0.26217E-02
  weight for this iteration     100.00

 eigenvalues of (default mixing * dielectric matrix)
  average eigenvalue GAMMA=   1.6828
  2.6134  2.6134  1.0328  1.0328  1.1215

[...]

----------------------------------------- Iteration    1(  11)  ---------------------------------------

 eigenvalue-minimisations  :  1379
 total energy-change (2. order) : 0.3962827E-05  (-0.6664204E-06)
 number of electron      39.9999981 magnetization
 augmentation part       16.7760019 magnetization

 Free energy of the ion-electron system (eV)
  alpha Z        PSCENC =       172.17182311
  Ewald energy   TEWEN  =     -3362.26702177
  -Hartree energ DENC   =      -464.13872487
  -exchange      EXHF   =         0.00000000
  -V(xc)+E(xc)   XCENC  =      -117.93640941
  PAW double counting   =      3842.34787263    -3603.86321829
  entropy T*S    EENTRO =        -0.00217822
  eigenvalues    EBANDS =       273.81709862
  atomic energy  EATOM  =      3239.00805526
  free energy    TOTEN  =       -20.86270294 eV

  energy without entropy =      -20.86052472  energy(sigma->0) =      -20.86197687

 average (electrostatic) potential at core
  the test charge radii are     1.1199
  (the norm of the test charge is              1.0000)
       1 -70.8648       2 -70.8648       3 -70.8648       4 -70.8648

 E-fermi :   9.3407     XC(G=0): -13.0207     alpha+bet :-16.2626

 k-point     1 :       0.0000    0.0000    0.0000
  band No.  band energies     occupation
      1       2.4079      2.00000
      2       4.1767      2.00000
      3       4.1767      2.00000
      4       4.1767      2.00000
      5       4.4522      2.00000
      6       4.4522      2.00000
      7       4.4522      2.00000
      8       6.6282      2.00000
      9       6.6282      2.00000
     10       6.6282      2.00000
     11       8.1741      2.00000
     12       8.1741      2.00000
     13       9.2980      1.65411
     14       9.2980      1.65411
     15       9.2980      1.65411
     16       9.6241     -0.00046
     17       9.6241     -0.00046
     18       9.6241     -0.00046
     19       9.6241     -0.00046
     20       9.6241     -0.00046
     21       9.6241     -0.00046
     22      12.6973      0.00000
     23      12.6973      0.00000
     24      12.6973      0.00000

[...]

 k-point    56 :       0.4545    0.4545    0.4545
  band No.  band energies     occupation
      1       4.2687      2.00000
      2       4.3054      2.00000
      3       4.3054      2.00000
      4       4.3054      2.00000
      5       6.5471      2.00000
      6       6.5471      2.00000
      7       6.5471      2.00000
      8       6.6025      2.00000
      9       6.6025      2.00000
     10       6.6309      2.00000
     11       6.6309      2.00000
     12       6.6309      2.00000
     13       8.9388      2.00000
     14       8.9388      2.00000
     15       8.9388      2.00000
     16       9.2737      1.89789
     17       9.2737      1.89789
     18       9.3273      1.22361
     19       9.3273      1.22361
     20       9.3273      1.22361
     21      10.0673     -0.00000
     22      10.7994     -0.00000
     23      10.7994     -0.00000
     24      10.7994     -0.00000

 soft charge-density along one line, spin component           1
         0         1         2         3         4         5         6         7         8         9
 total charge-density along one line

------------------------ aborting loop because EDIFF is reached ----------------------------------------

 total charge

# of ion     s       p       d       tot
  1        0.475   0.448   8.466   9.388
  2        0.475   0.448   8.466   9.388
  3        0.475   0.448   8.466   9.388
  4        0.475   0.448   8.466   9.388
tot        1.900   1.790  33.864  37.554

  DFT-D2 method for vdW energy calculation

  Parameters of vdW forcefield:
         C6(Jnm^6/mol)     R0(A)
   Pd       5.510          1.690

  IVDW =   1
  VDW_RADIUS =    40.000 A
  VDW_S6 =     0.750
  VDW_SR =     1.000
  VDW_D =    20.000
  LVDW_EWALD = F

  Number of pair interactions contributing to vdW energy:   44344
  Edisp (eV):   -0.51420

  FORCE on cell =-STRESS in cart. coord.  units (eV):
  Direction    XX          YY          ZZ          XY          YZ          ZX
  Alpha Z   172.17182   172.17182   172.17182
  Ewald   -1120.75617 -1120.75617 -1120.75617    -0.00000     0.00000    -0.00000
  Hartree   154.71296   154.71296   154.71296    -0.00000    -0.00000    -0.00000
  E(xc)    -209.94314  -209.94314  -209.94314    -0.00000     0.00000    -0.00000
  Local     176.11400   176.11400   176.11400    -0.00000     0.00000    -0.00000
  n-local   -11.29939   -20.45263    -9.46498     9.61760     5.86669     5.11006
  augment   296.81207   296.81207   296.81207    -0.00000     0.00000    -0.00000
  Kinetic   552.12624   541.63803   541.25826     4.57277    -0.79994     1.08939
  Fock        0.00000     0.00000     0.00000     0.00000     0.00000     0.00000
  vdW        -0.66111    -0.66111    -0.66111    -0.00000    -0.00000     0.00000
  Total      -0.28106    -0.28106    -0.28106    -0.00000    -0.00000     0.00000
  in kB      -7.43487    -7.43487    -7.43487    -0.00000    -0.00000     0.00000

 VOLUME and BASIS-vectors are now :
  energy-cutoff  :      700.00
  volume of cell :       60.57
      direct lattice vectors                 reciprocal lattice vectors
     3.927174036  0.000000000  0.000000000     0.254636029  0.000000000  0.000000000
     0.000000000  3.927174036  0.000000000     0.000000000  0.254636029  0.000000000
     0.000000000  0.000000000  3.927174036     0.000000000  0.000000000  0.254636029

  length of vectors
     3.927174036  3.927174036  3.927174036     0.254636029  0.254636029  0.254636029

 FORCES acting on ions
    electron-ion (+dipol)            ewald-force                    non-local-force                 convergence-correction
   -.758E-14 0.296E-14 -.774E-13   0.166E-14 -.857E-14 -.845E-14   0.496E-23 -.414E-23 0.993E-23   0.301E-14 -.118E-13 0.357E-14
   -.757E-14 0.304E-12 0.225E-12   0.119E-14 0.668E-14 0.361E-14   -.414E-23 -.414E-23 -.331E-23   0.534E-14 -.399E-13 -.466E-13
   0.295E-12 0.157E-15 0.475E-11   -.280E-14 -.788E-14 0.362E-14   -.993E-23 -.414E-23 -.331E-23   -.112E-13 -.200E-13 -.551E-13
   0.297E-12 0.227E-11 0.142E-11   -.327E-14 0.738E-14 -.894E-16   -.108E-22 -.372E-23 -.331E-23   -.158E-13 -.396E-13 0.363E-14
   0.577E-12 0.258E-11 0.632E-11   -.322E-14 -.239E-14 -.131E-14   -.199E-22 -.161E-22 0.000E+00   -.187E-13 -.111E-12 -.945E-13

 POSITION                                       TOTAL-FORCE (eV/Angst)
      0.00000      0.00000      0.00000        -0.000000      0.000000     -0.000000
      0.00000      1.96359      1.96359         0.000000     -0.000000     -0.000000
      1.96359      0.00000      1.96359         0.000000     -0.000000      0.000000
      1.96359      1.96359      0.00000        -0.000000      0.000000     -0.000000
    total drift:                                0.000000      0.000000      0.000000

  FREE ENERGIE OF THE ION-ELECTRON SYSTEM (eV)
  free  energy   TOTEN  =       -21.37690228 eV

  energy  without entropy=      -21.37472406  energy(sigma->0) =      -21.37617621

 writing wavefunctions

 total charge

# of ion     s       p       d       tot
  1        0.475   0.448   8.466   9.388
  2        0.475   0.448   8.466   9.388
  3        0.475   0.448   8.466   9.388
  4        0.475   0.448   8.466   9.388
tot        1.900   1.790  33.864  37.554