 vasp.5.3.5 31Mar14 (build Apr 25 2014 16:28:52) complex

 executed on             LinuxIFC date 2019.02.08  10:55:13

 INCAR:
 POTCAR:    PAW_PBE Rh 04Feb2005
 POTCAR:    PAW_PBE Rh 04Feb2005

 Optimization of the real space projectors (new method)

 maximal supplied QI-value         = 13.98
 optimisation between [QCUT,QGAM] = [ 13.42, 26.99] = [ 50.47,203.98] Ry
 Optimized for a Real-space Cutoff    1.44 Angstroem

   l    n(q)    QCUT    max X(q) W(low)/X(q) W(high)/X(q)  e(spline)
   2     11    13.425    59.645    0.12E-03    0.10E-03    0.30E-06
   2     11    13.425    58.460    0.12E-03    0.10E-03    0.31E-06
   0     12    13.425    97.683    0.70E-04    0.73E-05    0.13E-05
   0     12    13.425    53.223    0.66E-04    0.68E-05    0.12E-05
   1     11    13.425    13.596    0.47E-03    0.75E-03    0.81E-05
   1     11    13.425     7.885    0.35E-03    0.55E-03    0.60E-05
  PAW_PBE Rh 04Feb2005                  :

 POSCAR: Rh
  positions in direct lattice
  velocities in cartesian coordinates
 exchange correlation table for  LEXCH =        8
   RHO(1)=    0.500       N(1)  =     2000
   RHO(2)=  100.500       N(2)  =     4000

 ion  position               nearest neighbor table
   1  0.000  0.000  0.000-   2 2.70   3 2.70   4 2.70   2 2.70   3 2.70   2 2.70   4 2.70   2 2.70
                             3 2.70   4 2.70   3 2.70   4 2.70
   2  0.000  0.500  0.500-   1 2.70   3 2.70   4 2.70   1 2.70   4 2.70   1 2.70   3 2.70   1 2.70
                             3 2.70   4 2.70   4 2.70   3 2.70
   3  0.500  0.000  0.500-   1 2.70   2 2.70   4 2.70   1 2.70   4 2.70   2 2.70   4 2.70   4 2.70
                             1 2.70   2 2.70   1 2.70   2 2.70
   4  0.500  0.500  0.000-   1 2.70   2 2.70   3 2.70   2 2.70   3 2.70   1 2.70   3 2.70   3 2.70
                             1 2.70   2 2.70   2 2.70   1 2.70

  LATTYP: Found a simple cubic cell.
 ALAT       =     3.8179835408

  Lattice vectors:

 A1 = (   3.8179835408,   0.0000000000,   0.0000000000)
 A2 = (   0.0000000000,   3.8179835408,   0.0000000000)
 A3 = (   0.0000000000,   0.0000000000,   3.8179835408)

Analysis of symmetry for initial positions (statically):
 Subroutine PRICEL returns following result:

  LATTYP: Found a face centered cubic cell.
 ALAT       =     3.8179835408

[...]

   4 primitive cells build up your supercell.

 Routine SETGRP: Setting up the symmetry group for a
 simple cubic supercell.

 Subroutine GETGRP returns: Found 48 space group operations
 (whereof 48 operations were pure point group operations)
 out of a pool of 48 trial point group operations.

The static configuration has the point symmetry O_h .

Analysis of symmetry for dynamics (positions and initial velocities):
 Subroutine PRICEL returns following result:

  LATTYP: Found a face centered cubic cell.
 ALAT       =     3.8179835408

  Lattice vectors:

 A1 = (   1.9089917704,   1.9089917704,  -0.0000000000)
 A2 = (   1.9089917704,   0.0000000000,  -1.9089917704)
 A3 = (   0.0000000000,   1.9089917704,  -1.9089917704)

   4 primitive cells build up your supercell.

 Routine SETGRP: Setting up the symmetry group for a
 simple cubic supercell.

 Subroutine GETGRP returns: Found 48 space group operations
 (whereof 48 operations were pure point group operations)
 out of a pool of 48 trial point group operations.

The dynamic configuration has the point symmetry O_h .

 KPOINTS: K-points

Automatic generation of k-mesh.
Space group operators:
 irot       det(A)        alpha          n_x          n_y          n_z        tau_x        tau_y        tau_z
    1     1.000000     0.000000     1.000000     0.000000     0.000000     0.000000     0.000000     0.000000
    2    -1.000000     0.000000     1.000000     0.000000     0.000000     0.000000     0.000000     0.000000
    3     1.000000   120.000000    -0.577350    -0.577350    -0.577350     0.000000     0.000000     0.000000
    4    -1.000000   120.000000    -0.577350    -0.577350    -0.577350     0.000000     0.000000     0.000000
    5     1.000000   120.000000     0.577350     0.577350     0.577350     0.000000     0.000000     0.000000
    6    -1.000000   120.000000     0.577350     0.577350     0.577350     0.000000     0.000000     0.000000
    7     1.000000    90.000000     0.000000     0.000000    -1.000000     0.000000     0.000000     0.000000
    8    -1.000000    90.000000     0.000000     0.000000    -1.000000     0.000000     0.000000     0.000000
    9     1.000000   180.000000     0.000000     0.707107     0.707107     0.000000     0.000000     0.000000
   10    -1.000000   180.000000     0.000000     0.707107     0.707107     0.000000     0.000000     0.000000
   11     1.000000    90.000000     0.000000     1.000000     0.000000     0.000000     0.000000     0.000000
   12    -1.000000    90.000000     0.000000     1.000000     0.000000     0.000000     0.000000     0.000000
   13     1.000000   180.000000     0.000000     0.000000     1.000000     0.000000     0.000000     0.000000
   14    -1.000000   180.000000     0.000000     0.000000     1.000000     0.000000     0.000000     0.000000
   15     1.000000   120.000000    -0.577350     0.577350     0.577350     0.000000     0.000000     0.000000
   16    -1.000000   120.000000    -0.577350     0.577350     0.577350     0.000000     0.000000     0.000000
   17     1.000000   120.000000    -0.577350     0.577350    -0.577350     0.000000     0.000000     0.000000
   18    -1.000000   120.000000    -0.577350     0.577350    -0.577350     0.000000     0.000000     0.000000
   19     1.000000    90.000000     0.000000     0.000000     1.000000     0.000000     0.000000     0.000000
   20    -1.000000    90.000000     0.000000     0.000000     1.000000     0.000000     0.000000     0.000000
   21     1.000000    90.000000    -1.000000     0.000000     0.000000     0.000000     0.000000     0.000000
   22    -1.000000    90.000000    -1.000000     0.000000     0.000000     0.000000     0.000000     0.000000
   23     1.000000   180.000000     0.707107     0.000000     0.707107     0.000000     0.000000     0.000000
   24    -1.000000   180.000000     0.707107     0.000000     0.707107     0.000000     0.000000     0.000000
   25     1.000000   120.000000     0.577350    -0.577350     0.577350     0.000000     0.000000     0.000000
   26    -1.000000   120.000000     0.577350    -0.577350     0.577350     0.000000     0.000000     0.000000
   27     1.000000   120.000000    -0.577350    -0.577350     0.577350     0.000000     0.000000     0.000000
   28    -1.000000   120.000000    -0.577350    -0.577350     0.577350     0.000000     0.000000     0.000000
   29     1.000000   180.000000     1.000000     0.000000     0.000000     0.000000     0.000000     0.000000
   30    -1.000000   180.000000     1.000000     0.000000     0.000000     0.000000     0.000000     0.000000
   31     1.000000    90.000000     0.000000    -1.000000     0.000000     0.000000     0.000000     0.000000
   32    -1.000000    90.000000     0.000000    -1.000000     0.000000     0.000000     0.000000     0.000000
   33     1.000000   180.000000     0.707107     0.707107     0.000000     0.000000     0.000000     0.000000
   34    -1.000000   180.000000     0.707107     0.707107     0.000000     0.000000     0.000000     0.000000
   35     1.000000    90.000000     1.000000     0.000000     0.000000     0.000000     0.000000     0.000000
   36    -1.000000    90.000000     1.000000     0.000000     0.000000     0.000000     0.000000     0.000000
   37     1.000000   120.000000     0.577350    -0.577350    -0.577350     0.000000     0.000000     0.000000
   38    -1.000000   120.000000     0.577350    -0.577350    -0.577350     0.000000     0.000000     0.000000
   39     1.000000   180.000000     0.000000     1.000000     0.000000     0.000000     0.000000     0.000000
   40    -1.000000   180.000000     0.000000     1.000000     0.000000     0.000000     0.000000     0.000000
   41     1.000000   120.000000     0.577350     0.577350    -0.577350     0.000000     0.000000     0.000000
   42    -1.000000   120.000000     0.577350     0.577350    -0.577350     0.000000     0.000000     0.000000
   43     1.000000   180.000000     0.000000    -0.707107     0.707107     0.000000     0.000000     0.000000
   44    -1.000000   180.000000     0.000000    -0.707107     0.707107     0.000000     0.000000     0.000000
   45     1.000000   180.000000     0.707107    -0.707107     0.000000     0.000000     0.000000     0.000000
   46    -1.000000   180.000000     0.707107    -0.707107     0.000000     0.000000     0.000000     0.000000
   47     1.000000   180.000000     0.707107     0.000000    -0.707107     0.000000     0.000000     0.000000
   48    -1.000000   180.000000     0.707107     0.000000    -0.707107     0.000000     0.000000     0.000000

 Subroutine IBZKPT returns following result:

 Found     56 irreducible k-points:

 Following reciprocal coordinates:
            Coordinates               Weight
  0.000000  0.000000  0.000000      1.000000
  0.090909  0.000000  0.000000      6.000000
  0.181818  0.000000  0.000000      6.000000
  0.272727  0.000000  0.000000      6.000000
  0.363636  0.000000  0.000000      6.000000
  0.454545  0.000000  0.000000      6.000000
  0.090909  0.090909  0.000000     12.000000
  0.181818  0.090909  0.000000     24.000000
  0.272727  0.090909  0.000000     24.000000
  0.363636  0.090909  0.000000     24.000000
  0.454545  0.090909  0.000000     24.000000
  0.181818  0.181818  0.000000     12.000000
  0.272727  0.181818  0.000000     24.000000
  0.363636  0.181818  0.000000     24.000000
  0.454545  0.181818  0.000000     24.000000
  0.272727  0.272727  0.000000     12.000000
  0.363636  0.272727  0.000000     24.000000
  0.454545  0.272727  0.000000     24.000000
  0.363636  0.363636  0.000000     12.000000
  0.454545  0.363636  0.000000     24.000000
  0.454545  0.454545  0.000000     12.000000
  0.090909  0.090909  0.090909      8.000000
  0.181818  0.090909  0.090909     24.000000
  0.272727  0.090909  0.090909     24.000000
  0.363636  0.090909  0.090909     24.000000
  0.454545  0.090909  0.090909     24.000000
  0.181818  0.181818  0.090909     24.000000
  0.272727  0.181818  0.090909     48.000000
  0.363636  0.181818  0.090909     48.000000
  0.454545  0.181818  0.090909     48.000000
  0.272727  0.272727  0.090909     24.000000
  0.363636  0.272727  0.090909     48.000000
  0.454545  0.272727  0.090909     48.000000
  0.363636  0.363636  0.090909     24.000000
  0.454545  0.363636  0.090909     48.000000
  0.454545  0.454545  0.090909     24.000000
  0.181818  0.181818  0.181818      8.000000
  0.272727  0.181818  0.181818     24.000000
  0.363636  0.181818  0.181818     24.000000
  0.454545  0.181818  0.181818     24.000000
  0.272727  0.272727  0.181818     24.000000
  0.363636  0.272727  0.181818     48.000000
  0.454545  0.272727  0.181818     48.000000
  0.363636  0.363636  0.181818     24.000000
  0.454545  0.363636  0.181818     48.000000
  0.454545  0.454545  0.181818     24.000000
  0.272727  0.272727  0.272727      8.000000
  0.363636  0.272727  0.272727     24.000000
[...]
   0.45454545  0.00000000  0.00000000       0.005
   0.09090909  0.09090909  0.00000000       0.009
   0.18181818  0.09090909  0.00000000       0.018
   0.27272727  0.09090909  0.00000000       0.018
   0.36363636  0.09090909  0.00000000       0.018
   0.45454545  0.09090909  0.00000000       0.018
   0.18181818  0.18181818  0.00000000       0.009
   0.27272727  0.18181818  0.00000000       0.018
   0.36363636  0.18181818  0.00000000       0.018
   0.45454545  0.18181818  0.00000000       0.018
   0.27272727  0.27272727  0.00000000       0.009
   0.36363636  0.27272727  0.00000000       0.018
   0.45454545  0.27272727  0.00000000       0.018
   0.36363636  0.36363636  0.00000000       0.009
   0.45454545  0.36363636  0.00000000       0.018
   0.45454545  0.45454545  0.00000000       0.009
   0.09090909  0.09090909  0.09090909       0.006
   0.18181818  0.09090909  0.09090909       0.018
   0.27272727  0.09090909  0.09090909       0.018
   0.36363636  0.09090909  0.09090909       0.018
   0.45454545  0.09090909  0.09090909       0.018
   0.18181818  0.18181818  0.09090909       0.018
   0.27272727  0.18181818  0.09090909       0.036
   0.36363636  0.18181818  0.09090909       0.036
   0.45454545  0.18181818  0.09090909       0.036
   0.27272727  0.27272727  0.09090909       0.018
   0.36363636  0.27272727  0.09090909       0.036
   0.45454545  0.27272727  0.09090909       0.036
   0.36363636  0.36363636  0.09090909       0.018
   0.45454545  0.36363636  0.09090909       0.036
   0.45454545  0.45454545  0.09090909       0.018
   0.18181818  0.18181818  0.18181818       0.006
   0.27272727  0.18181818  0.18181818       0.018
   0.36363636  0.18181818  0.18181818       0.018
   0.45454545  0.18181818  0.18181818       0.018
   0.27272727  0.27272727  0.18181818       0.018
   0.36363636  0.27272727  0.18181818       0.036
   0.45454545  0.27272727  0.18181818       0.036
   0.36363636  0.36363636  0.18181818       0.018
   0.45454545  0.36363636  0.18181818       0.036
   0.45454545  0.45454545  0.18181818       0.018
   0.27272727  0.27272727  0.27272727       0.006
   0.36363636  0.27272727  0.27272727       0.018
   0.45454545  0.27272727  0.27272727       0.018
   0.36363636  0.36363636  0.27272727       0.018
   0.45454545  0.36363636  0.27272727       0.036
   0.45454545  0.45454545  0.27272727       0.018
   0.36363636  0.36363636  0.36363636       0.006
   0.45454545  0.36363636  0.36363636       0.018
   0.45454545  0.45454545  0.36363636       0.018
   0.45454545  0.45454545  0.45454545       0.006

 position of ions in fractional coordinates (direct lattice)
   0.00000000  0.00000000  0.00000000
   0.00000000  0.50000000  0.50000000
   0.50000000  0.00000000  0.50000000
   0.50000000  0.50000000  0.00000000

 position of ions in cartesian coordinates  (Angst):
   0.00000000  0.00000000  0.00000000
   0.00000000  1.90899177  1.90899177
   1.90899177  0.00000000  1.90899177
   1.90899177  1.90899177  0.00000000

 k-point  1 :   0.0000 0.0000 0.0000  plane waves:    2325
 k-point  2 :   0.0909 0.0000 0.0000  plane waves:    2357
 k-point  3 :   0.1818 0.0000 0.0000  plane waves:    2333
 k-point  4 :   0.2727 0.0000 0.0000  plane waves:    2328
 k-point  5 :   0.3636 0.0000 0.0000  plane waves:    2340
 k-point  6 :   0.4545 0.0000 0.0000  plane waves:    2356
 k-point  7 :   0.0909 0.0909 0.0000  plane waves:    2357
 k-point  8 :   0.1818 0.0909 0.0000  plane waves:    2347
 k-point  9 :   0.2727 0.0909 0.0000  plane waves:    2338
 k-point 10 :   0.3636 0.0909 0.0000  plane waves:    2344
 k-point 11 :   0.4545 0.0909 0.0000  plane waves:    2334
 k-point 12 :   0.1818 0.1818 0.0000  plane waves:    2336
 k-point 13 :   0.2727 0.1818 0.0000  plane waves:    2337
 k-point 14 :   0.3636 0.1818 0.0000  plane waves:    2337
 k-point 15 :   0.4545 0.1818 0.0000  plane waves:    2338
 k-point 16 :   0.2727 0.2727 0.0000  plane waves:    2338
 k-point 17 :   0.3636 0.2727 0.0000  plane waves:    2341
 k-point 18 :   0.4545 0.2727 0.0000  plane waves:    2338
 k-point 19 :   0.3636 0.3636 0.0000  plane waves:    2338
 k-point 20 :   0.4545 0.3636 0.0000  plane waves:    2333
 k-point 21 :   0.4545 0.4545 0.0000  plane waves:    2342
 k-point 22 :   0.0909 0.0909 0.0909  plane waves:    2358
 k-point 23 :   0.1818 0.0909 0.0909  plane waves:    2356
 k-point 24 :   0.2727 0.0909 0.0909  plane waves:    2340
 k-point 25 :   0.3636 0.0909 0.0909  plane waves:    2339
 k-point 26 :   0.4545 0.0909 0.0909  plane waves:    2342
 k-point 27 :   0.1818 0.1818 0.0909  plane waves:    2337
 k-point 28 :   0.2727 0.1818 0.0909  plane waves:    2338
 k-point 29 :   0.3636 0.1818 0.0909  plane waves:    2335
 k-point 30 :   0.4545 0.1818 0.0909  plane waves:    2335
 k-point 31 :   0.2727 0.2727 0.0909  plane waves:    2333
 k-point 32 :   0.3636 0.2727 0.0909  plane waves:    2325
 k-point 33 :   0.4545 0.2727 0.0909  plane waves:    2335
 k-point 34 :   0.3636 0.3636 0.0909  plane waves:    2337
 k-point 35 :   0.4545 0.3636 0.0909  plane waves:    2335
 k-point 36 :   0.4545 0.4545 0.0909  plane waves:    2342
 k-point 37 :   0.1818 0.1818 0.1818  plane waves:    2346
 k-point 38 :   0.2727 0.1818 0.1818  plane waves:    2345
 k-point 39 :   0.3636 0.1818 0.1818  plane waves:    2340
 k-point 40 :   0.4545 0.1818 0.1818  plane waves:    2340
 k-point 41 :   0.2727 0.2727 0.1818  plane waves:    2343
 k-point 42 :   0.3636 0.2727 0.1818  plane waves:    2336
 k-point 43 :   0.4545 0.2727 0.1818  plane waves:    2340
 k-point 44 :   0.3636 0.3636 0.1818  plane waves:    2340
 k-point 45 :   0.4545 0.3636 0.1818  plane waves:    2346
 k-point 46 :   0.4545 0.4545 0.1818  plane waves:    2344
 k-point 47 :   0.2727 0.2727 0.2727  plane waves:    2338
 k-point 48 :   0.3636 0.2727 0.2727  plane waves:    2342
 k-point 49 :   0.4545 0.2727 0.2727  plane waves:    2354
 k-point 50 :   0.3636 0.3636 0.2727  plane waves:    2339
 k-point 51 :   0.4545 0.3636 0.2727  plane waves:    2349
 k-point 52 :   0.4545 0.4545 0.2727  plane waves:    2336
 k-point 53 :   0.3636 0.3636 0.3636  plane waves:    2347
 k-point 54 :   0.4545 0.3636 0.3636  plane waves:    2352
 k-point 55 :   0.4545 0.4545 0.3636  plane waves:    2341
 k-point 56 :   0.4545 0.4545 0.4545  plane waves:    2335

 maximum and minimum number of plane-waves per node :       407      375

 maximum number of plane-waves:      2358
 maximum index in each direction:
   IXMAX=    8   IYMAX=    8   IZMAX=    8
   IXMIN=   -8   IYMIN=   -8   IZMIN=   -8

 WARNING: aliasing errors must be expected set NGX to  34 to avoid them
 WARNING: aliasing errors must be expected set NGY to  34 to avoid them
 WARNING: aliasing errors must be expected set NGZ to  34 to avoid them
 aliasing errors are usually negligible using standard VASP settings
 and one can safely disregard these warnings

 real space projection operators:
  max/ min on nodes  :        507.09        390.09

 parallel 3D FFT for wavefunctions:
    minimum data exchange during FFTs selected (reduces bandwidth)
 parallel 3D FFT for charge:
    minimum data exchange during FFTs selected (reduces bandwidth)

 Broyden mixing: mesh for mixing (old mesh)
   NGX = 17   NGY = 17   NGZ = 17
  (NGX  = 56   NGY  = 56   NGZ  = 56)
  gives a total of   4913 points

 initial charge density was supplied:
 charge density of overlapping atoms calculated
 number of electron      36.0000000 magnetization
 keeping initial charge density in first step

 Maximum index for non-local projection operator          920
 Maximum index for augmentation-charges         2187 (set IRDMAX)

 First call to EWALD:  gamma=   0.464
 Maximum number of real-space cells 3x 3x 3
 Maximum number of reciprocal cells 3x 3x 3

 FEWALD executed in parallel

----------------------------------------- Iteration    1(   1)  ---------------------------------------

 eigenvalue-minimisations  :  2464
 total energy-change (2. order) : 0.2672345E+03  (-0.2122209E+04)
 number of electron      36.0000000 magnetization
 augmentation part       36.0000000 magnetization

 Free energy of the ion-electron system (eV)
  alpha Z        PSCENC =       159.45005841
  Ewald energy   TEWEN  =     -2801.32383086
  -Hartree energ DENC   =      -287.52756734
  -exchange      EXHF   =         0.00000000
  -V(xc)+E(xc)   XCENC  =       -66.50849719
  PAW double counting   =      2424.26331944    -2256.51348885
  entropy T*S    EENTRO =         0.00088322
  eigenvalues    EBANDS =       629.71741369
  atomic energy  EATOM  =      2465.67622645
  free energy    TOTEN  =       267.23451696 eV

  energy without entropy =      267.23363374  energy(sigma->0) =      267.23422255

[...]

 eigenvalue-minimisations  :  2770
 total energy-change (2. order) :-0.2879524E+03  (-0.2773696E+03)
 number of electron      36.0000000 magnetization
 augmentation part       36.0000000 magnetization

[...]

 Broyden mixing:
  rms(total) = 0.20255E+01    rms(broyden)= 0.20255E+01
  rms(prec ) = 0.29080E+01
  weight for this iteration     100.00

[...]

 eigenvalues of (default mixing * dielectric matrix)
  average eigenvalue GAMMA=   1.5551
  1.5551

[...]

 eigenvalue-minimisations  :  2416
 total energy-change (2. order) :-0.1579943E-03  (-0.1614519E-03)
 number of electron      36.0000022 magnetization
 augmentation part       14.0958236 magnetization

[...]

 Broyden mixing:
  rms(total) = 0.49521E-02    rms(broyden)= 0.49521E-02
  rms(prec ) = 0.70984E-02
  weight for this iteration     100.00

 eigenvalues of (default mixing * dielectric matrix)
  average eigenvalue GAMMA=   1.6021
  2.6398  2.6398  1.4019  0.9268  1.0020  1.0020

[...]

----------------------------------------- Iteration    1(  12)  ---------------------------------------

 eigenvalue-minimisations  :  1878
 total energy-change (2. order) : 0.1709598E-05  (-0.4711461E-05)
 number of electron      36.0000022 magnetization
 augmentation part       14.0912342 magnetization

 Free energy of the ion-electron system (eV)
  alpha Z        PSCENC =       159.45005841
  Ewald energy   TEWEN  =     -2801.32383086
  -Hartree energ DENC   =      -243.00041762
  -exchange      EXHF   =         0.00000000
  -V(xc)+E(xc)   XCENC  =       -67.72121235
  PAW double counting   =      3218.78736070    -3064.33913615
  entropy T*S    EENTRO =        -0.00236666
  eigenvalues    EBANDS =       303.36482246
  atomic energy  EATOM  =      2465.67622645
  free energy    TOTEN  =       -29.10849562 eV

  energy without entropy =      -29.10612896  energy(sigma->0) =      -29.10770673

 average (electrostatic) potential at core
  the test charge radii are     1.1806
  (the norm of the test charge is              1.0000)
       1 -62.0719       2 -62.0719       3 -62.0719       4 -62.0719

 E-fermi :  11.5189     XC(G=0): -13.5405     alpha+bet :-18.3997

 k-point     1 :       0.0000    0.0000    0.0000
  band No.  band energies     occupation
      1       3.6741      2.00000
      2       5.3297      2.00000
      3       5.3297      2.00000
      4       5.3297      2.00000
      5       5.6866      2.00000
      6       5.6866      2.00000
      7       5.6866      2.00000
      8       8.4969      2.00000
      9       8.4969      2.00000
     10       8.4969      2.00000
     11      10.5452      2.00000
     12      10.5452      2.00000
     13      12.0433     -0.00000
     14      12.0433     -0.00000
     15      12.0433     -0.00000
     16      12.4723     -0.00000
     17      12.4723     -0.00000
     18      12.4723     -0.00000
     19      12.4723     -0.00000
     20      12.4723     -0.00000
     21      12.4723     -0.00000
     22      14.7750      0.00000

[...]

 k-point    56 :       0.4545    0.4545    0.4545
  band No.  band energies     occupation
      1       5.5313      2.00000
      2       5.5736      2.00000
      3       5.5736      2.00000
      4       5.5736      2.00000
      5       8.3708      2.00000
      6       8.3708      2.00000
      7       8.3708      2.00000
      8       8.4477      2.00000
      9       8.4477      2.00000
     10       8.4836      2.00000
     11       8.4836      2.00000
     12       8.4836      2.00000
     13      11.2953      2.00694
     14      11.2953      2.00694
     15      11.2953      2.00694
     16      11.9556     -0.00000
     17      11.9978     -0.00000
     18      11.9978     -0.00000
     19      12.0726     -0.00000
     20      12.0726     -0.00000
     21      12.0727     -0.00000
     22      13.0448     -0.00000

 soft charge-density along one line, spin component           1
         0         1         2         3         4         5         6         7         8         9
 total charge-density along one line

------------------------ aborting loop because EDIFF is reached ----------------------------------------

 total charge

# of ion     s       p       d       tot
  1        0.501   0.566   7.354   8.421
  2        0.501   0.566   7.354   8.421
  3        0.501   0.566   7.354   8.421
  4        0.501   0.566   7.354   8.421
tot        2.004   2.265  29.415  33.684

  DFT-D2 method for vdW energy calculation

  Parameters of vdW forcefield:
         C6(Jnm^6/mol)     R0(A)
   Rh       4.364          1.677

  IVDW =   1
  VDW_RADIUS =    40.000 A
  VDW_S6 =     0.750
  VDW_SR =     1.000
  VDW_D =    20.000
  LVDW_EWALD = F

  Number of pair interactions contributing to vdW energy:   48072
  Edisp (eV):   -0.46351

  FORCE on cell =-STRESS in cart. coord.  units (eV):
  Direction    XX          YY          ZZ          XY          YZ          ZX
  Alpha Z   159.45006   159.45006   159.45006
  Ewald    -933.77502  -933.77502  -933.77502     0.00000     0.00000     0.00000
  Hartree    81.00533    81.00533    81.00533    -0.00000    -0.00000    -0.00000
  E(xc)    -171.56042  -171.56042  -171.56042    -0.00000    -0.00000     0.00000
  Local     164.27192   164.27192   164.27192     0.00000     0.00000    -0.00000
  n-local    22.44122    11.86494    21.58592     8.91444     5.53838     5.93464
  augment   234.82914   234.82914   234.82914    -0.00000     0.00000    -0.00000
  Kinetic   465.19287   441.97380   436.81848     7.81357    12.29157     8.92185
  Fock        0.00000     0.00000     0.00000     0.00000     0.00000     0.00000
  vdW        -0.65184    -0.65184    -0.65184     0.00000    -0.00000     0.00000
  Total       0.19491     0.19491     0.19491     0.00000    -0.00000     0.00000
  in kB       5.61089     5.61089     5.61089     0.00000    -0.00000     0.00000

 VOLUME and BASIS-vectors are now :
  energy-cutoff  :      700.00
  volume of cell :       55.65
      direct lattice vectors                 reciprocal lattice vectors
     3.817983541  0.000000000  0.000000000     0.261918363  0.000000000  0.000000000
     0.000000000  3.817983541  0.000000000     0.000000000  0.261918363  0.000000000
     0.000000000  0.000000000  3.817983541     0.000000000  0.000000000  0.261918363

  length of vectors
     3.817983541  3.817983541  3.817983541     0.261918363  0.261918363  0.261918363

 FORCES acting on ions
    electron-ion (+dipol)            ewald-force                    non-local-force                 convergence-correction
   0.215E-14 -.562E-14 -.641E-13   -.571E-14 -.701E-14 -.289E-14   -.265E-22 0.000E+00 0.000E+00   -.269E-14 -.175E-14 0.154E-14
   0.187E-14 0.187E-12 0.127E-12   -.565E-14 0.590E-14 0.292E-14   0.000E+00 -.298E-22 0.529E-22   -.888E-14 -.648E-14 -.205E-13
   0.189E-12 -.426E-14 0.298E-11   0.637E-14 -.502E-14 0.308E-14   -.794E-22 -.298E-22 -.132E-22   -.233E-13 -.608E-14 -.203E-13
   0.190E-12 0.145E-11 0.926E-12   0.643E-14 0.789E-14 -.463E-14   0.529E-22 0.529E-22 0.662E-22   -.215E-13 -.159E-13 0.795E-14
   0.382E-12 0.163E-11 0.397E-11   0.144E-14 0.176E-14 -.153E-14   -.529E-22 -.667E-23 0.106E-21   -.564E-13 -.302E-13 -.314E-13

 POSITION                                       TOTAL-FORCE (eV/Angst)
      0.00000      0.00000      0.00000         0.000000     -0.000000      0.000000
      0.00000      1.90899      1.90899         0.000000     -0.000000     -0.000000
      1.90899      0.00000      1.90899        -0.000000      0.000000     -0.000000
      1.90899      1.90899      0.00000         0.000000     -0.000000      0.000000
    total drift:                                0.000000      0.000000      0.000000

  FREE ENERGIE OF THE ION-ELECTRON SYSTEM (eV)
  free  energy   TOTEN  =       -29.57200169 eV

  energy  without entropy=      -29.56963503  energy(sigma->0) =      -29.57121281

 writing wavefunctions

 total charge

# of ion     s       p       d       tot
  1        0.501   0.566   7.354   8.421
  2        0.501   0.566   7.354   8.421
  3        0.501   0.566   7.354   8.421
  4        0.501   0.566   7.354   8.421
tot        2.004   2.265  29.415  33.684