 vasp.5.3.5 31Mar14 (build Apr 25 2014 16:28:52) complex

 executed on             LinuxIFC date 2019.02.08  10:55:27

 INCAR:
 POTCAR:    PAW_PBE Ru 04Feb2005
 POTCAR:    PAW_PBE Ru 04Feb2005
   VRHFIN =Ru: s1 d7

   TITEL  = PAW_PBE Ru 04Feb2005
   POMASS =  101.070; ZVAL   =    8.000    mass and valenz
   ENMAX  =  213.271; ENMIN  =  159.953 eV

 Optimization of the real space projectors (new method)

 maximal supplied QI-value         = 13.98
 optimisation between [QCUT,QGAM] = [ 10.21, 20.42] = [ 29.18,116.73] Ry
 Optimized for a Real-space Cutoff    1.51 Angstroem

   l    n(q)    QCUT    max X(q) W(low)/X(q) W(high)/X(q)  e(spline)
   2      8    10.208    61.733    0.32E-03    0.51E-03    0.21E-06
   2      8    10.208    59.886    0.33E-03    0.53E-03    0.22E-06
   0      9    10.208    23.358    0.41E-03    0.22E-03    0.14E-06
   0      9    10.208    11.320    0.34E-03    0.18E-03    0.11E-06
   1      9    10.208    14.765    0.25E-03    0.44E-03    0.23E-06
   1      9    10.208     8.283    0.19E-03    0.33E-03    0.18E-06
  PAW_PBE Ru 04Feb2005                  :

 POSCAR: Ru
  positions in direct lattice
  velocities in cartesian coordinates
 exchange correlation table for  LEXCH =        8
   RHO(1)=    0.500       N(1)  =     2000
   RHO(2)=  100.500       N(2)  =     4000

 ion  position               nearest neighbor table
   1  0.333  0.667  0.250-   2 2.65   2 2.65   2 2.65   2 2.65   2 2.65   2 2.65
   2  0.667  0.333  0.750-   1 2.65   1 2.65   1 2.65   1 2.65   1 2.65   1 2.65

  LATTYP: Found a hexagonal cell.
 ALAT       =     2.7058000565
 C/A-ratio  =     1.5823785605

  Lattice vectors:

 A1 = (   2.7058000565,   0.0000000000,   0.0000000000)
 A2 = (  -1.3529000282,   2.3432915865,   0.0000000000)
 A3 = (   0.0000000000,   0.0000000000,   4.2815999985)

Analysis of symmetry for initial positions (statically):
 Subroutine PRICEL returns:
 Original cell was already a primitive cell.

 Routine SETGRP: Setting up the symmetry group for a
 hexagonal supercell.

 Subroutine GETGRP returns: Found 24 space group operations
 (whereof 12 operations were pure point group operations)
 out of a pool of 24 trial point group operations.

The static configuration has the point symmetry D_3d.
 The point group associated with its full space group is D_6h.

Analysis of symmetry for dynamics (positions and initial velocities):
 Subroutine PRICEL returns:
 Original cell was already a primitive cell.

[...]

The dynamic configuration has the point symmetry D_3d.
 The point group associated with its full space group is D_6h.

Analysis of constrained symmetry for selective dynamics:
 Subroutine PRICEL returns:
 Original cell was already a primitive cell.

 Routine SETGRP: Setting up the symmetry group for a
 hexagonal supercell.

 Subroutine GETGRP returns: Found 24 space group operations
 (whereof 12 operations were pure point group operations)
 out of a pool of 24 trial point group operations.

The constrained configuration has the point symmetry D_3d.
 The point group associated with its full space group is D_6h.

 KPOINTS: K-points

Automatic generation of k-mesh.
Space group operators:
 irot       det(A)        alpha          n_x          n_y          n_z        tau_x        tau_y        tau_z
    1     1.000000     0.000001     1.000000     0.000000     0.000000     0.000000     0.000000     0.000000
    2    -1.000000     0.000001     1.000000     0.000000     0.000000     0.000000     0.000000     0.000000
    3     1.000000   120.000000     0.000000     0.000000    -1.000000     0.000000     0.000000     0.000000
    4    -1.000000   120.000000     0.000000     0.000000    -1.000000     0.000000     0.000000     0.000000
    5     1.000000   120.000000     0.000000     0.000000     1.000000     0.000000     0.000000     0.000000
    6    -1.000000   120.000000     0.000000     0.000000     1.000000     0.000000     0.000000     0.000000
    7     1.000000   180.000000     1.000000    -0.000000     0.000000     0.000000     0.000000     0.000000
    8    -1.000000   180.000000     1.000000    -0.000000     0.000000     0.000000     0.000000     0.000000
    9     1.000000   180.000000     0.500000    -0.866025     0.000000     0.000000     0.000000     0.000000
   10    -1.000000   180.000000     0.500000    -0.866025     0.000000     0.000000     0.000000     0.000000
   11     1.000000   180.000000    -0.500000    -0.866025     0.000000     0.000000     0.000000     0.000000
   12    -1.000000   180.000000    -0.500000    -0.866025     0.000000     0.000000     0.000000     0.000000
   13     1.000000    60.000000     0.000000     0.000000    -1.000000     0.000000     0.000000     0.500000
   14    -1.000000    60.000000     0.000000     0.000000    -1.000000     0.000000     0.000000     0.500000
   15     1.000000   180.000000     0.000000     0.000000     1.000000     0.000000     0.000000     0.500000
   16    -1.000000   180.000000     0.000000     0.000000     1.000000     0.000000     0.000000     0.500000
   17     1.000000    60.000000     0.000000     0.000000     1.000000     0.000000     0.000000     0.500000
   18    -1.000000    60.000000     0.000000     0.000000     1.000000     0.000000     0.000000     0.500000
   19     1.000000   180.000000     0.866025    -0.500000     0.000000     0.000000     0.000000     0.500000
   20    -1.000000   180.000000     0.866025    -0.500000     0.000000     0.000000     0.000000     0.500000
   21     1.000000   180.000000     0.000000     1.000000     0.000000     0.000000     0.000000     0.500000
   22    -1.000000   180.000000     0.000000     1.000000     0.000000     0.000000     0.000000     0.500000
   23     1.000000   180.000000     0.866025     0.500000     0.000000     0.000000     0.000000     0.500000
   24    -1.000000   180.000000     0.866025     0.500000     0.000000     0.000000     0.000000     0.500000

 Subroutine IBZKPT returns following result:

 Found    216 irreducible k-points:

 Following reciprocal coordinates:
            Coordinates               Weight
  0.000000  0.000000  0.000000      1.000000
  0.066667 -0.000000  0.000000      6.000000
  0.133333 -0.000000  0.000000      6.000000
  0.200000 -0.000000  0.000000      6.000000
  0.266667 -0.000000  0.000000      6.000000
  0.333333  0.000000  0.000000      6.000000
  0.400000 -0.000000  0.000000      6.000000
  0.466667 -0.000000  0.000000      6.000000
  0.066667  0.066667  0.000000      6.000000
  0.133333  0.066667  0.000000     12.000000
  0.200000  0.066667  0.000000     12.000000
  0.266667  0.066667  0.000000     12.000000
  0.333333  0.066667  0.000000     12.000000
  0.400000  0.066667  0.000000     12.000000
  0.466667  0.066667  0.000000      6.000000
  0.133333  0.133333  0.000000      6.000000
  0.200000  0.133333  0.000000     12.000000
  0.266667  0.133333  0.000000     12.000000
  0.333333  0.133333  0.000000     12.000000
  0.400000  0.133333  0.000000     12.000000
  0.200000  0.200000  0.000000      6.000000
  0.266667  0.200000  0.000000     12.000000
  0.333333  0.200000  0.000000     12.000000
  0.400000  0.200000  0.000000      6.000000
  0.266667  0.266667  0.000000      6.000000
  0.333333  0.266667  0.000000     12.000000
  0.333333  0.333333  0.000000      2.000000
  0.000000  0.000000  0.066667      2.000000
  0.066667 -0.000000  0.066667     12.000000
  0.133333 -0.000000  0.066667     12.000000
  0.200000 -0.000000  0.066667     12.000000
  0.266667 -0.000000  0.066667     12.000000
  0.333333  0.000000  0.066667     12.000000
  0.400000 -0.000000  0.066667     12.000000
  0.466667 -0.000000  0.066667     12.000000
  0.066667  0.066667  0.066667     12.000000
  0.133333  0.066667  0.066667     24.000000
  0.200000  0.066667  0.066667     24.000000
  0.266667  0.066667  0.066667     24.000000
  0.333333  0.066667  0.066667     24.000000
  0.400000  0.066667  0.066667     24.000000
  0.466667  0.066667  0.066667     12.000000
  0.133333  0.133333  0.066667     12.000000
  0.200000  0.133333  0.066667     24.000000
  0.266667  0.133333  0.066667     24.000000
  0.333333  0.133333  0.066667     24.000000
  0.400000  0.133333  0.066667     24.000000
  0.200000  0.200000  0.066667     12.000000
  0.266667  0.200000  0.066667     24.000000
  0.333333  0.200000  0.066667     24.000000
  0.400000  0.200000  0.066667     12.000000
  0.266667  0.266667  0.066667     12.000000
  0.333333  0.266667  0.066667     24.000000
  0.333333  0.333333  0.066667      4.000000
  0.000000  0.000000  0.133333      2.000000
  0.066667 -0.000000  0.133333     12.000000
  0.133333 -0.000000  0.133333     12.000000
  0.200000 -0.000000  0.133333     12.000000
  0.266667 -0.000000  0.133333     12.000000
  0.333333  0.000000  0.133333     12.000000
[...]
  0.333333  0.066667  0.466667     24.000000
  0.400000  0.066667  0.466667     24.000000
  0.466667  0.066667  0.466667     12.000000
  0.133333  0.133333  0.466667     12.000000
  0.200000  0.133333  0.466667     24.000000
  0.266667  0.133333  0.466667     24.000000
  0.333333  0.133333  0.466667     24.000000
  0.400000  0.133333  0.466667     24.000000
  0.200000  0.200000  0.466667     12.000000
  0.266667  0.200000  0.466667     24.000000
  0.333333  0.200000  0.466667     24.000000
  0.400000  0.200000  0.466667     12.000000
  0.266667  0.266667  0.466667     12.000000
  0.333333  0.266667  0.466667     24.000000
  0.333333  0.333333  0.466667      4.000000

 Following cartesian coordinates:
            Coordinates               Weight
  0.000000  0.000000  0.000000      1.000000
  0.024638  0.014225  0.000000      6.000000
  0.049277  0.028450  0.000000      6.000000
  0.073915  0.042675  0.000000      6.000000
  0.098554  0.056900  0.000000      6.000000
  0.123192  0.071125  0.000000      6.000000
  0.147831  0.085350  0.000000      6.000000
  0.172469  0.099575  0.000000      6.000000
  0.024638  0.042675  0.000000      6.000000
  0.049277  0.056900  0.000000     12.000000
  0.073915  0.071125  0.000000     12.000000
  0.098554  0.085350  0.000000     12.000000
  0.123192  0.099575  0.000000     12.000000
  0.147831  0.113800  0.000000     12.000000
  0.172469  0.128025  0.000000      6.000000
  0.049277  0.085350  0.000000      6.000000
  0.073915  0.099575  0.000000     12.000000
  0.098554  0.113800  0.000000     12.000000
  0.123192  0.128025  0.000000     12.000000
  0.147831  0.142250  0.000000     12.000000
  0.073915  0.128025  0.000000      6.000000
  0.098554  0.142250  0.000000     12.000000
  0.123192  0.156475  0.000000     12.000000
  0.147831  0.170700  0.000000      6.000000
  0.098554  0.170700  0.000000      6.000000
  0.123192  0.184925  0.000000     12.000000
  0.123192  0.213375  0.000000      2.000000
  0.000000  0.000000  0.015571      2.000000
  0.024638  0.014225  0.015571     12.000000
  0.049277  0.028450  0.015571     12.000000
  0.073915  0.042675  0.015571     12.000000
  0.098554  0.056900  0.015571     12.000000
  0.123192  0.071125  0.015571     12.000000
  0.147831  0.085350  0.015571     12.000000
  0.172469  0.099575  0.015571     12.000000
  0.024638  0.042675  0.015571     12.000000
  0.049277  0.056900  0.015571     24.000000
[...]
 k-point 27 :   0.3333 0.3333 0.0000  plane waves:     480
 k-point 28 :   0.0000 0.0000 0.0667  plane waves:     512
 k-point 29 :   0.0667-0.0000 0.0667  plane waves:     507
 k-point 30 :   0.1333-0.0000 0.0667  plane waves:     503
 k-point 31 :   0.2000-0.0000 0.0667  plane waves:     497
 k-point 32 :   0.2667-0.0000 0.0667  plane waves:     489
 k-point 33 :   0.3333 0.0000 0.0667  plane waves:     485
 k-point 34 :   0.4000-0.0000 0.0667  plane waves:     487
 k-point 35 :   0.4667-0.0000 0.0667  plane waves:     487
 k-point 36 :   0.0667 0.0667 0.0667  plane waves:     504
 k-point 37 :   0.1333 0.0667 0.0667  plane waves:     501
 k-point 38 :   0.2000 0.0667 0.0667  plane waves:     495
 k-point 39 :   0.2667 0.0667 0.0667  plane waves:     491
 k-point 40 :   0.3333 0.0667 0.0667  plane waves:     490
 k-point 41 :   0.4000 0.0667 0.0667  plane waves:     486
 k-point 42 :   0.4667 0.0667 0.0667  plane waves:     483
 k-point 43 :   0.1333 0.1333 0.0667  plane waves:     497
 k-point 44 :   0.2000 0.1333 0.0667  plane waves:     494
 k-point 45 :   0.2667 0.1333 0.0667  plane waves:     494
 k-point 46 :   0.3333 0.1333 0.0667  plane waves:     492
 k-point 47 :   0.4000 0.1333 0.0667  plane waves:     484
 k-point 48 :   0.2000 0.2000 0.0667  plane waves:     489
 k-point 49 :   0.2667 0.2000 0.0667  plane waves:     491
 k-point 50 :   0.3333 0.2000 0.0667  plane waves:     490
 k-point 51 :   0.4000 0.2000 0.0667  plane waves:     488
 k-point 52 :   0.2667 0.2667 0.0667  plane waves:     492
 k-point 53 :   0.3333 0.2667 0.0667  plane waves:     484
 k-point 54 :   0.3333 0.3333 0.0667  plane waves:     486
 k-point 55 :   0.0000 0.0000 0.1333  plane waves:     512
 k-point 56 :   0.0667-0.0000 0.1333  plane waves:     510
 k-point 57 :   0.1333-0.0000 0.1333  plane waves:     500
 k-point 58 :   0.2000-0.0000 0.1333  plane waves:     495
 k-point 59 :   0.2667-0.0000 0.1333  plane waves:     488
 k-point 60 :   0.3333 0.0000 0.1333  plane waves:     492
[...]
 k-point 85 :   0.2000-0.0000 0.2000  plane waves:     496
 k-point 86 :   0.2667-0.0000 0.2000  plane waves:     493
 k-point 87 :   0.3333 0.0000 0.2000  plane waves:     490
 k-point 88 :   0.4000-0.0000 0.2000  plane waves:     486
 k-point 89 :   0.4667-0.0000 0.2000  plane waves:     487
 k-point 90 :   0.0667 0.0667 0.2000  plane waves:     501
 k-point 91 :   0.1333 0.0667 0.2000  plane waves:     497
 k-point 92 :   0.2000 0.0667 0.2000  plane waves:     493
 k-point 93 :   0.2667 0.0667 0.2000  plane waves:     494
 k-point 94 :   0.3333 0.0667 0.2000  plane waves:     490
 k-point 95 :   0.4000 0.0667 0.2000  plane waves:     487
 k-point 96 :   0.4667 0.0667 0.2000  plane waves:     486
 k-point 97 :   0.1333 0.1333 0.2000  plane waves:     495
 k-point 98 :   0.2000 0.1333 0.2000  plane waves:     496
 k-point 99 :   0.2667 0.1333 0.2000  plane waves:     494
 k-point ** :   0.3333 0.1333 0.2000  plane waves:     489
 k-point ** :   0.4000 0.1333 0.2000  plane waves:     491
 k-point ** :   0.2000 0.2000 0.2000  plane waves:     492
 k-point ** :   0.2667 0.2000 0.2000  plane waves:     494
 k-point ** :   0.3333 0.2000 0.2000  plane waves:     493
 k-point ** :   0.4000 0.2000 0.2000  plane waves:     490
 k-point ** :   0.2667 0.2667 0.2000  plane waves:     493
 k-point ** :   0.3333 0.2667 0.2000  plane waves:     492
 k-point ** :   0.3333 0.3333 0.2000  plane waves:     489
 k-point ** :   0.0000 0.0000 0.2667  plane waves:     512
 k-point ** :   0.0667-0.0000 0.2667  plane waves:     500
 k-point ** :   0.1333-0.0000 0.2667  plane waves:     504
 k-point ** :   0.2000-0.0000 0.2667  plane waves:     502
 k-point ** :   0.2667-0.0000 0.2667  plane waves:     496
 k-point ** :   0.3333 0.0000 0.2667  plane waves:     490
 k-point ** :   0.4000-0.0000 0.2667  plane waves:     492
 k-point ** :   0.4667-0.0000 0.2667  plane waves:     490
 k-point ** :   0.0667 0.0667 0.2667  plane waves:     503
 k-point ** :   0.1333 0.0667 0.2667  plane waves:     499
 k-point ** :   0.2000 0.0667 0.2667  plane waves:     493
 k-point ** :   0.2667 0.0667 0.2667  plane waves:     495
 k-point ** :   0.3333 0.0667 0.2667  plane waves:     491
 k-point ** :   0.4000 0.0667 0.2667  plane waves:     487
 k-point ** :   0.4667 0.0667 0.2667  plane waves:     486
 k-point ** :   0.1333 0.1333 0.2667  plane waves:     498
 k-point ** :   0.2000 0.1333 0.2667  plane waves:     496
 k-point ** :   0.2667 0.1333 0.2667  plane waves:     494
 k-point ** :   0.3333 0.1333 0.2667  plane waves:     490
 k-point ** :   0.4000 0.1333 0.2667  plane waves:     488
 k-point ** :   0.2000 0.2000 0.2667  plane waves:     492
 k-point ** :   0.2667 0.2000 0.2667  plane waves:     493
 k-point ** :   0.3333 0.2000 0.2667  plane waves:     493
 k-point ** :   0.4000 0.2000 0.2667  plane waves:     492
 k-point ** :   0.2667 0.2667 0.2667  plane waves:     489
 k-point ** :   0.3333 0.2667 0.2667  plane waves:     493
 k-point ** :   0.3333 0.3333 0.2667  plane waves:     495
 k-point ** :   0.0000 0.0000 0.3333  plane waves:     494
 k-point ** :   0.0667-0.0000 0.3333  plane waves:     503
 k-point ** :   0.1333-0.0000 0.3333  plane waves:     505
 k-point ** :   0.2000-0.0000 0.3333  plane waves:     505
 k-point ** :   0.2667-0.0000 0.3333  plane waves:     498
 k-point ** :   0.3333 0.0000 0.3333  plane waves:     491
 k-point ** :   0.4000-0.0000 0.3333  plane waves:     496
 k-point ** :   0.4667-0.0000 0.3333  plane waves:     489
 k-point ** :   0.0667 0.0667 0.3333  plane waves:     504
 k-point ** :   0.1333 0.0667 0.3333  plane waves:     500
 k-point ** :   0.2000 0.0667 0.3333  plane waves:     496
 k-point ** :   0.2667 0.0667 0.3333  plane waves:     494
 k-point ** :   0.3333 0.0667 0.3333  plane waves:     490
 k-point ** :   0.4000 0.0667 0.3333  plane waves:     489
 k-point ** :   0.4667 0.0667 0.3333  plane waves:     488
 k-point ** :   0.1333 0.1333 0.3333  plane waves:     499
 k-point ** :   0.2000 0.1333 0.3333  plane waves:     495
 k-point ** :   0.2667 0.1333 0.3333  plane waves:     492
 k-point ** :   0.3333 0.1333 0.3333  plane waves:     487
 k-point ** :   0.4000 0.1333 0.3333  plane waves:     486
 k-point ** :   0.2000 0.2000 0.3333  plane waves:     494
 k-point ** :   0.2667 0.2000 0.3333  plane waves:     495
 k-point ** :   0.3333 0.2000 0.3333  plane waves:     492
 k-point ** :   0.4000 0.2000 0.3333  plane waves:     489
[...]
 k-point ** :   0.3333 0.0667 0.4667  plane waves:     492
 k-point ** :   0.4000 0.0667 0.4667  plane waves:     494
 k-point ** :   0.4667 0.0667 0.4667  plane waves:     492
 k-point ** :   0.1333 0.1333 0.4667  plane waves:     498
 k-point ** :   0.2000 0.1333 0.4667  plane waves:     494
 k-point ** :   0.2667 0.1333 0.4667  plane waves:     493
 k-point ** :   0.3333 0.1333 0.4667  plane waves:     491
 k-point ** :   0.4000 0.1333 0.4667  plane waves:     487
 k-point ** :   0.2000 0.2000 0.4667  plane waves:     500
 k-point ** :   0.2667 0.2000 0.4667  plane waves:     492
 k-point ** :   0.3333 0.2000 0.4667  plane waves:     487
 k-point ** :   0.4000 0.2000 0.4667  plane waves:     480
 k-point ** :   0.2667 0.2667 0.4667  plane waves:     492
 k-point ** :   0.3333 0.2667 0.4667  plane waves:     492
 k-point ** :   0.3333 0.3333 0.4667  plane waves:     498

 maximum and minimum number of plane-waves per node :        90       71

 maximum number of plane-waves:       512
 maximum index in each direction:
   IXMAX=    4   IYMAX=    4   IZMAX=    6
   IXMIN=   -4   IYMIN=   -4   IZMIN=   -7

 WARNING: aliasing errors must be expected set NGX to  18 to avoid them
 WARNING: aliasing errors must be expected set NGY to  18 to avoid them
 WARNING: aliasing errors must be expected set NGZ to  28 to avoid them
 aliasing errors are usually negligible using standard VASP settings
 and one can safely disregard these warnings

 real space projection operators:
  max/ min on nodes  :        142.45         97.03

 parallel 3D FFT for wavefunctions:
    minimum data exchange during FFTs selected (reduces bandwidth)
 parallel 3D FFT for charge:
    minimum data exchange during FFTs selected (reduces bandwidth)

 Broyden mixing: mesh for mixing (old mesh)
   NGX =  9   NGY =  9   NGZ = 13
  (NGX  = 28   NGY  = 28   NGZ  = 48)
  gives a total of   1053 points

 initial charge density was supplied:
 charge density of overlapping atoms calculated
 number of electron      16.0000000 magnetization
 keeping initial charge density in first step

 Maximum index for non-local projection operator          508
 Maximum index for augmentation-charges         1295 (set IRDMAX)

 First call to EWALD:  gamma=   0.590
 Maximum number of real-space cells 3x 3x 2
 Maximum number of reciprocal cells 3x 3x 4

 FEWALD executed in parallel

----------------------------------------- Iteration    1(   1)  ---------------------------------------

 eigenvalue-minimisations  :  5184
 total energy-change (2. order) : 0.6097446E+02  (-0.6634485E+03)
 number of electron      16.0000000 magnetization
 augmentation part       16.0000000 magnetization

 Free energy of the ion-electron system (eV)
  alpha Z        PSCENC =        67.60406997
  Ewald energy   TEWEN  =     -1115.65017199
  -Hartree energ DENC   =       -76.20531364
  -exchange      EXHF   =         0.00000000
  -V(xc)+E(xc)   XCENC  =       -63.74743008
  PAW double counting   =       925.32818268     -827.85498640
  entropy T*S    EENTRO =        -0.00078510
  eigenvalues    EBANDS =       241.74006263
  atomic energy  EATOM  =       909.76083116
  free energy    TOTEN  =        60.97445923 eV

  energy without entropy =       60.97524433  energy(sigma->0) =       60.97472093

[...]

 eigenvalue-minimisations  :  5844
 total energy-change (2. order) :-0.7916396E+02  (-0.7073571E+02)
 number of electron      16.0000000 magnetization
 augmentation part       16.0000000 magnetization

[...]

 eigenvalue-minimisations  :  5504
 total energy-change (2. order) :-0.2184827E-03  (-0.2184816E-03)
 number of electron      16.0000005 magnetization
 augmentation part        4.9533225 magnetization

 Broyden mixing:
  rms(total) = 0.17260E+01    rms(broyden)= 0.17260E+01
  rms(prec ) = 0.22380E+01
  weight for this iteration     100.00

[...]

 eigenvalues of (default mixing * dielectric matrix)
  average eigenvalue GAMMA=   1.4653
  1.4653

[...]

 Broyden mixing:
  rms(total) = 0.90978E-03    rms(broyden)= 0.90977E-03
  rms(prec ) = 0.14924E-02
  weight for this iteration     100.00

 eigenvalues of (default mixing * dielectric matrix)
  average eigenvalue GAMMA=   1.5990
  2.6880  2.3725  1.2722  1.0210  1.1202  1.1202

[...]

----------------------------------------- Iteration    1(  12)  ---------------------------------------

 eigenvalue-minimisations  :  3997
 total energy-change (2. order) : 0.2984647E-06  (-0.3782604E-06)
 number of electron      16.0000005 magnetization
 augmentation part        5.4495892 magnetization

 Free energy of the ion-electron system (eV)
  alpha Z        PSCENC =        67.60406997
  Ewald energy   TEWEN  =     -1115.65017199
  -Hartree energ DENC   =       -57.27544269
  -exchange      EXHF   =         0.00000000
  -V(xc)+E(xc)   XCENC  =       -63.82526247
  PAW double counting   =      1316.89745534    -1225.46056356
  entropy T*S    EENTRO =        -0.00133387
  eigenvalues    EBANDS =       149.43791474
  atomic energy  EATOM  =       909.76083116
  free energy    TOTEN  =       -18.51250336 eV

  energy without entropy =      -18.51116949  energy(sigma->0) =      -18.51205874

 average (electrostatic) potential at core
  the test charge radii are     1.2511
  (the norm of the test charge is              1.0000)
       1 -56.0475       2 -56.0475

 E-fermi :  12.5539     XC(G=0): -13.8143     alpha+bet :-19.7287

 k-point     1 :       0.0000    0.0000    0.0000
  band No.  band energies     occupation
      1       4.5760      2.00000
      2       6.3629      2.00000
      3       9.9622      2.00000
      4       9.9622      2.00000
      5      10.1356      2.00000
      6      10.6421      2.00000
      7      10.6421      2.00000
      8      11.1645      2.00000
      9      11.1645      2.00000
     10      13.7314     -0.00000
     11      13.7314     -0.00000
     12      13.8456     -0.00000

[...]

 k-point   216 :       0.3333    0.3333    0.4667
  band No.  band energies     occupation
      1       7.8702      2.00000
      2       7.8702      2.00000
      3       8.3267      2.00000
      4       8.5513      2.00000
      5       9.8405      2.00000
      6       9.8405      2.00000
      7      11.3027      2.00000
      8      11.4615      2.00000
      9      13.7735     -0.00000
     10      13.7735     -0.00000
     11      20.9328      0.00000
     12      20.9328      0.00000

 soft charge-density along one line, spin component           1
         0         1         2         3         4         5         6         7         8         9
 total charge-density along one line

------------------------ aborting loop because EDIFF is reached ----------------------------------------

 total charge

# of ion     s       p       d       tot
  1        0.638   0.814   6.599   8.051
  2        0.638   0.814   6.599   8.051
tot        1.275   1.627  13.198  16.101

  DFT-D2 method for vdW energy calculation

  Parameters of vdW forcefield:
         C6(Jnm^6/mol)     R0(A)
   Ru       4.168          1.639

  IVDW =   1
  VDW_RADIUS =    40.000 A
  VDW_S6 =     0.750
  VDW_SR =     1.000
  VDW_D =    20.000
  LVDW_EWALD = F

  Number of pair interactions contributing to vdW energy:   29652
  Edisp (eV):   -0.23950

  FORCE on cell =-STRESS in cart. coord.  units (eV):
  Direction    XX          YY          ZZ          XY          YZ          ZX
  Alpha Z    67.60407    67.60407    67.60407
  Ewald    -376.79161  -376.79160  -362.06773    -0.00000    -0.00000    -0.00000
  Hartree    17.81006    17.81006    21.65948    -0.00000     0.00000     0.00000
  E(xc)     -76.15477   -76.15478   -76.23528    -0.00001    -0.00000    -0.00000
  Local      63.45225    63.45218    45.97123    -0.00005    -0.00000    -0.00000
  n-local    26.96548    24.01578    27.05719   -13.54946     2.34043     2.43208
  augment    90.25666    90.25675    89.46525     0.00008    -0.00000    -0.00000
  Kinetic   191.18498   186.17548   186.87034    -6.25044    -2.02091    -0.50949
  Fock        0.00000     0.00000     0.00000     0.00000     0.00000     0.00000
  vdW        -0.30762    -0.30762    -0.33532     0.00000     0.00000    -0.00000
  Total       0.03990     0.03990    -0.01077     0.00000    -0.00000     0.00000
  in kB       2.35507     2.35507    -0.63549     0.00000    -0.00000     0.00000

 VOLUME and BASIS-vectors are now :
  energy-cutoff  :      400.00
  volume of cell :       27.15
      direct lattice vectors                 reciprocal lattice vectors
     2.705800057  0.000000000  0.000000000     0.369576458  0.213375067  0.000000000
    -1.352900028  2.343291586  0.000000000     0.000000000  0.426750135  0.000000000
     0.000000000  0.000000000  4.281599998     0.000000000  0.000000000  0.233557549

  length of vectors
     2.705800057  2.705800056  4.281599998     0.426750135  0.426750135  0.233557549

 FORCES acting on ions
    electron-ion (+dipol)            ewald-force                    non-local-force                 convergence-correction
   0.107E-05 -.183E-05 -.556E-08   -.177E-05 -.215E-05 0.191E-07   -.139E-16 -.139E-16 0.867E-18   0.474E-08 -.710E-09 -.145E-09
   0.289E-05 0.183E-05 0.557E-08   0.177E-05 0.215E-05 -.191E-07   -.867E-17 0.139E-16 -.867E-18   -.620E-08 0.710E-09 0.145E-09
   0.396E-05 -.349E-12 0.103E-10   0.327E-14 0.290E-14 0.000E+00   -.226E-16 0.000E+00 0.000E+00   -.145E-08 0.338E-13 -.175E-13

 POSITION                                       TOTAL-FORCE (eV/Angst)
     -0.00000      1.56219      1.07040         0.000000     -0.000000     -0.000000
      1.35290      0.78110      3.21120        -0.000000      0.000000      0.000000
    total drift:                                0.000004     -0.000000      0.000000

  FREE ENERGIE OF THE ION-ELECTRON SYSTEM (eV)
  free  energy   TOTEN  =       -18.75200372 eV

  energy  without entropy=      -18.75066985  energy(sigma->0) =      -18.75155910

 Quasi-Newton relaxation of ions (Broydens 2nd method)
  g(Force)  = 0.373E-45   g(Stress)= 0.159E-04

 Reset! Starting new Quasi-Newton update for ions

 reached required accuracy - stopping structural energy minimisation
 writing wavefunctions

 total charge

# of ion     s       p       d       tot
  1        0.638   0.814   6.599   8.051
  2        0.638   0.814   6.599   8.051
tot        1.275   1.627  13.198  16.101