 vasp.5.3.5 31Mar14 (build Apr 25 2014 16:28:52) complex

 executed on             LinuxIFC date 2019.02.08  10:54:30

 INCAR:
 POTCAR:    PAW_PBE Ag 02Apr2005
 POTCAR:    PAW_PBE Ag 02Apr2005

 Optimization of the real space projectors (new method)

 maximal supplied QI-value         = 15.12
 optimisation between [QCUT,QGAM] = [ 13.45, 27.06] = [ 50.69,205.06] Ry
 Optimized for a Real-space Cutoff    1.40 Angstroem

   l    n(q)    QCUT    max X(q) W(low)/X(q) W(high)/X(q)  e(spline)
   2     10    13.455    53.897    0.14E-03    0.57E-05    0.46E-06
   2     10    13.455    52.416    0.14E-03    0.59E-05    0.47E-06
   0     11    13.455   122.045    0.39E-04    0.60E-05    0.60E-06
   0     11    13.455    73.629    0.37E-04    0.57E-05    0.58E-06
   1     11    13.455    15.255    0.12E-03    0.22E-03    0.63E-06
   1     11    13.455     9.562    0.98E-04    0.18E-03    0.51E-06
  PAW_PBE Ag 02Apr2005                  :

 POSCAR: Ag
  positions in direct lattice
  velocities in cartesian coordinates
 exchange correlation table for  LEXCH =        8
   RHO(1)=    0.500       N(1)  =     2000
   RHO(2)=  100.500       N(2)  =     4000

 ion  position               nearest neighbor table
   1  0.000  0.000  0.000-   2 2.92   3 2.92   4 2.92   2 2.92   3 2.92   2 2.92   4 2.92   2 2.92
                             3 2.92   4 2.92   3 2.92   4 2.92
   2  0.000  0.500  0.500-   1 2.92   3 2.92   4 2.92   1 2.92   4 2.92   1 2.92   3 2.92   1 2.92
                             3 2.92   4 2.92   4 2.92   3 2.92
   3  0.500  0.000  0.500-   1 2.92   2 2.92   4 2.92   1 2.92   4 2.92   2 2.92   4 2.92   4 2.92
                             1 2.92   2 2.92   1 2.92   2 2.92
   4  0.500  0.500  0.000-   1 2.92   2 2.92   3 2.92   2 2.92   3 2.92   1 2.92   3 2.92   3 2.92
                             1 2.92   2 2.92   2 2.92   1 2.92

  LATTYP: Found a simple cubic cell.
 ALAT       =     4.1259705704

  Lattice vectors:

 A1 = (   4.1259705704,   0.0000000000,   0.0000000000)
 A2 = (   0.0000000000,   4.1259705704,   0.0000000000)
 A3 = (   0.0000000000,   0.0000000000,   4.1259705704)

Analysis of symmetry for initial positions (statically):
 Subroutine PRICEL returns following result:

  LATTYP: Found a face centered cubic cell.
 ALAT       =     4.1259705704

[...]

   4 primitive cells build up your supercell.

 Routine SETGRP: Setting up the symmetry group for a
 simple cubic supercell.

 Subroutine GETGRP returns: Found 48 space group operations
 (whereof 48 operations were pure point group operations)
 out of a pool of 48 trial point group operations.

The static configuration has the point symmetry O_h .

Analysis of symmetry for dynamics (positions and initial velocities):
 Subroutine PRICEL returns following result:

  LATTYP: Found a face centered cubic cell.
 ALAT       =     4.1259705704

  Lattice vectors:

 A1 = (   2.0629852852,   2.0629852852,   0.0000000000)
 A2 = (   2.0629852852,   0.0000000000,  -2.0629852852)
 A3 = (   0.0000000000,   2.0629852852,  -2.0629852852)

   4 primitive cells build up your supercell.

 Routine SETGRP: Setting up the symmetry group for a
 simple cubic supercell.

 Subroutine GETGRP returns: Found 48 space group operations
 (whereof 48 operations were pure point group operations)
 out of a pool of 48 trial point group operations.

The dynamic configuration has the point symmetry O_h .

 KPOINTS: K-points

Automatic generation of k-mesh.
Space group operators:
 irot       det(A)        alpha          n_x          n_y          n_z        tau_x        tau_y        tau_z
    1     1.000000     0.000001     1.000000     0.000000     0.000000     0.000000     0.000000     0.000000
    2    -1.000000     0.000001     1.000000     0.000000     0.000000     0.000000     0.000000     0.000000
    3     1.000000   120.000000    -0.577350    -0.577350    -0.577350     0.000000     0.000000     0.000000
    4    -1.000000   120.000000    -0.577350    -0.577350    -0.577350     0.000000     0.000000     0.000000
    5     1.000000   120.000000     0.577350     0.577350     0.577350     0.000000     0.000000     0.000000
    6    -1.000000   120.000000     0.577350     0.577350     0.577350     0.000000     0.000000     0.000000
    7     1.000000    90.000000     0.000000     0.000000    -1.000000     0.000000     0.000000     0.000000
    8    -1.000000    90.000000     0.000000     0.000000    -1.000000     0.000000     0.000000     0.000000
    9     1.000000   180.000000     0.000000     0.707107     0.707107     0.000000     0.000000     0.000000
   10    -1.000000   180.000000     0.000000     0.707107     0.707107     0.000000     0.000000     0.000000
   11     1.000000    90.000000     0.000000     1.000000     0.000000     0.000000     0.000000     0.000000
   12    -1.000000    90.000000     0.000000     1.000000     0.000000     0.000000     0.000000     0.000000
   13     1.000000   180.000000     0.000000     0.000000     1.000000     0.000000     0.000000     0.000000
   14    -1.000000   180.000000     0.000000     0.000000     1.000000     0.000000     0.000000     0.000000
   15     1.000000   120.000000    -0.577350     0.577350     0.577350     0.000000     0.000000     0.000000
   16    -1.000000   120.000000    -0.577350     0.577350     0.577350     0.000000     0.000000     0.000000
   17     1.000000   120.000000    -0.577350     0.577350    -0.577350     0.000000     0.000000     0.000000
   18    -1.000000   120.000000    -0.577350     0.577350    -0.577350     0.000000     0.000000     0.000000
   19     1.000000    90.000000     0.000000     0.000000     1.000000     0.000000     0.000000     0.000000
   20    -1.000000    90.000000     0.000000     0.000000     1.000000     0.000000     0.000000     0.000000
   21     1.000000    90.000000    -1.000000     0.000000     0.000000     0.000000     0.000000     0.000000
   22    -1.000000    90.000000    -1.000000     0.000000     0.000000     0.000000     0.000000     0.000000
   23     1.000000   180.000000     0.707107     0.000000     0.707107     0.000000     0.000000     0.000000
   24    -1.000000   180.000000     0.707107     0.000000     0.707107     0.000000     0.000000     0.000000
   25     1.000000   120.000000     0.577350    -0.577350     0.577350     0.000000     0.000000     0.000000
   26    -1.000000   120.000000     0.577350    -0.577350     0.577350     0.000000     0.000000     0.000000
   27     1.000000   120.000000    -0.577350    -0.577350     0.577350     0.000000     0.000000     0.000000
   28    -1.000000   120.000000    -0.577350    -0.577350     0.577350     0.000000     0.000000     0.000000
   29     1.000000   180.000000     1.000000     0.000000     0.000000     0.000000     0.000000     0.000000
   30    -1.000000   180.000000     1.000000     0.000000     0.000000     0.000000     0.000000     0.000000
   31     1.000000    90.000000     0.000000    -1.000000     0.000000     0.000000     0.000000     0.000000
   32    -1.000000    90.000000     0.000000    -1.000000     0.000000     0.000000     0.000000     0.000000
   33     1.000000   180.000000     0.707107     0.707107     0.000000     0.000000     0.000000     0.000000
   34    -1.000000   180.000000     0.707107     0.707107     0.000000     0.000000     0.000000     0.000000
   35     1.000000    90.000000     1.000000     0.000000     0.000000     0.000000     0.000000     0.000000
   36    -1.000000    90.000000     1.000000     0.000000     0.000000     0.000000     0.000000     0.000000
   37     1.000000   120.000000     0.577350    -0.577350    -0.577350     0.000000     0.000000     0.000000
   38    -1.000000   120.000000     0.577350    -0.577350    -0.577350     0.000000     0.000000     0.000000
   39     1.000000   180.000000     0.000000     1.000000     0.000000     0.000000     0.000000     0.000000
   40    -1.000000   180.000000     0.000000     1.000000     0.000000     0.000000     0.000000     0.000000
   41     1.000000   120.000000     0.577350     0.577350    -0.577350     0.000000     0.000000     0.000000
   42    -1.000000   120.000000     0.577350     0.577350    -0.577350     0.000000     0.000000     0.000000
   43     1.000000   180.000000     0.000000    -0.707107     0.707107     0.000000     0.000000     0.000000
   44    -1.000000   180.000000     0.000000    -0.707107     0.707107     0.000000     0.000000     0.000000
   45     1.000000   180.000000     0.707107    -0.707107     0.000000     0.000000     0.000000     0.000000
   46    -1.000000   180.000000     0.707107    -0.707107     0.000000     0.000000     0.000000     0.000000
   47     1.000000   180.000000     0.707107     0.000000    -0.707107     0.000000     0.000000     0.000000
   48    -1.000000   180.000000     0.707107     0.000000    -0.707107     0.000000     0.000000     0.000000

 Subroutine IBZKPT returns following result:

 Found     56 irreducible k-points:

 Following reciprocal coordinates:
            Coordinates               Weight
  0.000000  0.000000  0.000000      1.000000
  0.090909  0.000000  0.000000      6.000000
  0.181818  0.000000  0.000000      6.000000
  0.272727  0.000000  0.000000      6.000000
  0.363636  0.000000  0.000000      6.000000
  0.454545  0.000000  0.000000      6.000000
  0.090909  0.090909  0.000000     12.000000
  0.181818  0.090909  0.000000     24.000000
  0.272727  0.090909  0.000000     24.000000
  0.363636  0.090909  0.000000     24.000000
  0.454545  0.090909  0.000000     24.000000
  0.181818  0.181818  0.000000     12.000000
  0.272727  0.181818  0.000000     24.000000
  0.363636  0.181818  0.000000     24.000000
  0.454545  0.181818  0.000000     24.000000
  0.272727  0.272727  0.000000     12.000000
  0.363636  0.272727  0.000000     24.000000
  0.454545  0.272727  0.000000     24.000000
  0.363636  0.363636  0.000000     12.000000
  0.454545  0.363636  0.000000     24.000000
  0.454545  0.454545  0.000000     12.000000
  0.090909  0.090909  0.090909      8.000000
  0.181818  0.090909  0.090909     24.000000
  0.272727  0.090909  0.090909     24.000000
  0.363636  0.090909  0.090909     24.000000
  0.454545  0.090909  0.090909     24.000000
  0.181818  0.181818  0.090909     24.000000
  0.272727  0.181818  0.090909     48.000000
  0.363636  0.181818  0.090909     48.000000
  0.454545  0.181818  0.090909     48.000000
  0.272727  0.272727  0.090909     24.000000
  0.363636  0.272727  0.090909     48.000000
  0.454545  0.272727  0.090909     48.000000
  0.363636  0.363636  0.090909     24.000000
  0.454545  0.363636  0.090909     48.000000
  0.454545  0.454545  0.090909     24.000000
  0.181818  0.181818  0.181818      8.000000
  0.272727  0.181818  0.181818     24.000000
  0.363636  0.181818  0.181818     24.000000
  0.454545  0.181818  0.181818     24.000000
  0.272727  0.272727  0.181818     24.000000
  0.363636  0.272727  0.181818     48.000000
  0.454545  0.272727  0.181818     48.000000
  0.363636  0.363636  0.181818     24.000000
  0.454545  0.363636  0.181818     48.000000
  0.454545  0.454545  0.181818     24.000000
  0.272727  0.272727  0.272727      8.000000
  0.363636  0.272727  0.272727     24.000000
[...]
   0.27272727  0.18181818  0.00000000       0.018
   0.36363636  0.18181818  0.00000000       0.018
   0.45454545  0.18181818  0.00000000       0.018
   0.27272727  0.27272727  0.00000000       0.009
   0.36363636  0.27272727  0.00000000       0.018
   0.45454545  0.27272727  0.00000000       0.018
   0.36363636  0.36363636  0.00000000       0.009
   0.45454545  0.36363636  0.00000000       0.018
   0.45454545  0.45454545  0.00000000       0.009
   0.09090909  0.09090909  0.09090909       0.006
   0.18181818  0.09090909  0.09090909       0.018
   0.27272727  0.09090909  0.09090909       0.018
   0.36363636  0.09090909  0.09090909       0.018
   0.45454545  0.09090909  0.09090909       0.018
   0.18181818  0.18181818  0.09090909       0.018
   0.27272727  0.18181818  0.09090909       0.036
   0.36363636  0.18181818  0.09090909       0.036
   0.45454545  0.18181818  0.09090909       0.036
   0.27272727  0.27272727  0.09090909       0.018
   0.36363636  0.27272727  0.09090909       0.036
   0.45454545  0.27272727  0.09090909       0.036
   0.36363636  0.36363636  0.09090909       0.018
   0.45454545  0.36363636  0.09090909       0.036
   0.45454545  0.45454545  0.09090909       0.018
   0.18181818  0.18181818  0.18181818       0.006
   0.27272727  0.18181818  0.18181818       0.018
   0.36363636  0.18181818  0.18181818       0.018
   0.45454545  0.18181818  0.18181818       0.018
   0.27272727  0.27272727  0.18181818       0.018
   0.36363636  0.27272727  0.18181818       0.036
   0.45454545  0.27272727  0.18181818       0.036
   0.36363636  0.36363636  0.18181818       0.018
   0.45454545  0.36363636  0.18181818       0.036
   0.45454545  0.45454545  0.18181818       0.018
   0.27272727  0.27272727  0.27272727       0.006
   0.36363636  0.27272727  0.27272727       0.018
   0.45454545  0.27272727  0.27272727       0.018
   0.36363636  0.36363636  0.27272727       0.018
   0.45454545  0.36363636  0.27272727       0.036
   0.45454545  0.45454545  0.27272727       0.018
   0.36363636  0.36363636  0.36363636       0.006
   0.45454545  0.36363636  0.36363636       0.018
   0.45454545  0.45454545  0.36363636       0.018
   0.45454545  0.45454545  0.45454545       0.006

 position of ions in fractional coordinates (direct lattice)
   0.00000000  0.00000000  0.00000000
   0.00000000  0.50000000  0.50000000
   0.50000000  0.00000000  0.50000000
   0.50000000  0.50000000  0.00000000

 position of ions in cartesian coordinates  (Angst):
   0.00000000  0.00000000  0.00000000
   0.00000000  2.06298529  2.06298529
   2.06298529  0.00000000  2.06298529
   2.06298529  2.06298529  0.00000000

 k-point  1 :   0.0000 0.0000 0.0000  plane waves:    2945
 k-point  2 :   0.0909 0.0000 0.0000  plane waves:    2941
 k-point  3 :   0.1818 0.0000 0.0000  plane waves:    2958
 k-point  4 :   0.2727 0.0000 0.0000  plane waves:    2946
 k-point  5 :   0.3636 0.0000 0.0000  plane waves:    2938
 k-point  6 :   0.4545 0.0000 0.0000  plane waves:    2926
 k-point  7 :   0.0909 0.0909 0.0000  plane waves:    2949
 k-point  8 :   0.1818 0.0909 0.0000  plane waves:    2945
 k-point  9 :   0.2727 0.0909 0.0000  plane waves:    2957
 k-point 10 :   0.3636 0.0909 0.0000  plane waves:    2941
 k-point 11 :   0.4545 0.0909 0.0000  plane waves:    2941
 k-point 12 :   0.1818 0.1818 0.0000  plane waves:    2953
 k-point 13 :   0.2727 0.1818 0.0000  plane waves:    2956
 k-point 14 :   0.3636 0.1818 0.0000  plane waves:    2953
 k-point 15 :   0.4545 0.1818 0.0000  plane waves:    2948
 k-point 16 :   0.2727 0.2727 0.0000  plane waves:    2953
 k-point 17 :   0.3636 0.2727 0.0000  plane waves:    2950
 k-point 18 :   0.4545 0.2727 0.0000  plane waves:    2954
 k-point 19 :   0.3636 0.3636 0.0000  plane waves:    2956
 k-point 20 :   0.4545 0.3636 0.0000  plane waves:    2955
 k-point 21 :   0.4545 0.4545 0.0000  plane waves:    2970
 k-point 22 :   0.0909 0.0909 0.0909  plane waves:    2945
 k-point 23 :   0.1818 0.0909 0.0909  plane waves:    2951
 k-point 24 :   0.2727 0.0909 0.0909  plane waves:    2945
 k-point 25 :   0.3636 0.0909 0.0909  plane waves:    2941
 k-point 26 :   0.4545 0.0909 0.0909  plane waves:    2937
 k-point 27 :   0.1818 0.1818 0.0909  plane waves:    2952
 k-point 28 :   0.2727 0.1818 0.0909  plane waves:    2949
 k-point 29 :   0.3636 0.1818 0.0909  plane waves:    2952
 k-point 30 :   0.4545 0.1818 0.0909  plane waves:    2944
 k-point 31 :   0.2727 0.2727 0.0909  plane waves:    2950
 k-point 32 :   0.3636 0.2727 0.0909  plane waves:    2955
 k-point 33 :   0.4545 0.2727 0.0909  plane waves:    2950
 k-point 34 :   0.3636 0.3636 0.0909  plane waves:    2955
 k-point 35 :   0.4545 0.3636 0.0909  plane waves:    2955
 k-point 36 :   0.4545 0.4545 0.0909  plane waves:    2964
 k-point 37 :   0.1818 0.1818 0.1818  plane waves:    2962
 k-point 38 :   0.2727 0.1818 0.1818  plane waves:    2951
 k-point 39 :   0.3636 0.1818 0.1818  plane waves:    2956
 k-point 40 :   0.4545 0.1818 0.1818  plane waves:    2947
 k-point 41 :   0.2727 0.2727 0.1818  plane waves:    2953
 k-point 42 :   0.3636 0.2727 0.1818  plane waves:    2950
 k-point 43 :   0.4545 0.2727 0.1818  plane waves:    2948
 k-point 44 :   0.3636 0.3636 0.1818  plane waves:    2953
 k-point 45 :   0.4545 0.3636 0.1818  plane waves:    2958
 k-point 46 :   0.4545 0.4545 0.1818  plane waves:    2968
 k-point 47 :   0.2727 0.2727 0.2727  plane waves:    2968
 k-point 48 :   0.3636 0.2727 0.2727  plane waves:    2961
 k-point 49 :   0.4545 0.2727 0.2727  plane waves:    2955
 k-point 50 :   0.3636 0.3636 0.2727  plane waves:    2959
 k-point 51 :   0.4545 0.3636 0.2727  plane waves:    2970
 k-point 52 :   0.4545 0.4545 0.2727  plane waves:    2978
 k-point 53 :   0.3636 0.3636 0.3636  plane waves:    2983
 k-point 54 :   0.4545 0.3636 0.3636  plane waves:    2971
 k-point 55 :   0.4545 0.4545 0.3636  plane waves:    2973
 k-point 56 :   0.4545 0.4545 0.4545  plane waves:    2968

 maximum and minimum number of plane-waves per node :       510      462

 maximum number of plane-waves:      2983
 maximum index in each direction:
   IXMAX=    8   IYMAX=    8   IZMAX=    8
   IXMIN=   -9   IYMIN=   -9   IZMIN=   -9

 WARNING: aliasing errors must be expected set NGX to  36 to avoid them
 WARNING: aliasing errors must be expected set NGY to  36 to avoid them
 WARNING: aliasing errors must be expected set NGZ to  36 to avoid them
 aliasing errors are usually negligible using standard VASP settings
 and one can safely disregard these warnings

 real space projection operators:
  max/ min on nodes  :        358.59        255.94

 parallel 3D FFT for wavefunctions:
    minimum data exchange during FFTs selected (reduces bandwidth)
 parallel 3D FFT for charge:
    minimum data exchange during FFTs selected (reduces bandwidth)

 Broyden mixing: mesh for mixing (old mesh)
   NGX = 17   NGY = 17   NGZ = 17
  (NGX  = 56   NGY  = 56   NGZ  = 56)
  gives a total of   4913 points

 initial charge density was supplied:
 charge density of overlapping atoms calculated
 number of electron      44.0000000 magnetization
 keeping initial charge density in first step

 Maximum index for non-local projection operator          671
 Maximum index for augmentation-charges         1555 (set IRDMAX)

 First call to EWALD:  gamma=   0.430
 Maximum number of real-space cells 3x 3x 3
 Maximum number of reciprocal cells 3x 3x 3

 FEWALD executed in parallel

----------------------------------------- Iteration    1(   1)  ---------------------------------------

 eigenvalue-minimisations  :  2912
 total energy-change (2. order) : 0.3408051E+03  (-0.2732275E+04)
 number of electron      44.0000000 magnetization
 augmentation part       44.0000000 magnetization

 Free energy of the ion-electron system (eV)
  alpha Z        PSCENC =       193.75627912
  Ewald energy   TEWEN  =     -3872.32315568
  -Hartree energ DENC   =      -828.19623561
  -exchange      EXHF   =         0.00000000
  -V(xc)+E(xc)   XCENC  =       -41.95847246
  PAW double counting   =      4013.84859731    -3829.39709692
  entropy T*S    EENTRO =        -0.00064981
  eigenvalues    EBANDS =       556.01000396
  atomic energy  EATOM  =      4149.06579846
  free energy    TOTEN  =       340.80506837 eV

  energy without entropy =      340.80571818  energy(sigma->0) =      340.80528497

[...]

 eigenvalue-minimisations  :  3008
 total energy-change (2. order) :-0.3442341E+03  (-0.3345981E+03)
 number of electron      44.0000000 magnetization
 augmentation part       44.0000000 magnetization

[...]

 Broyden mixing:
  rms(total) = 0.96719E+00    rms(broyden)= 0.96719E+00
  rms(prec ) = 0.16559E+01
  weight for this iteration     100.00

[...]

 eigenvalues of (default mixing * dielectric matrix)
  average eigenvalue GAMMA=   1.2567
  1.2567

[...]

 eigenvalue-minimisations  :  1823
 total energy-change (2. order) :-0.2920830E-04  (-0.2456418E-05)
 number of electron      44.0000057 magnetization
 augmentation part       21.0169596 magnetization

 Broyden mixing:
  rms(total) = 0.62246E-03    rms(broyden)= 0.62245E-03
  rms(prec ) = 0.12351E-02
  weight for this iteration     100.00

 eigenvalues of (default mixing * dielectric matrix)
  average eigenvalue GAMMA=   1.6899
  2.7454  2.4746  0.9728  1.1510  1.1059

[...]

----------------------------------------- Iteration    1(  11)  ---------------------------------------

 eigenvalue-minimisations  :  1535
 total energy-change (2. order) : 0.3317418E-06  (-0.4389270E-06)
 number of electron      44.0000057 magnetization
 augmentation part       21.0169596 magnetization

 Free energy of the ion-electron system (eV)
  alpha Z        PSCENC =       193.75627912
  Ewald energy   TEWEN  =     -3872.32315568
  -Hartree energ DENC   =      -778.30873893
  -exchange      EXHF   =         0.00000000
  -V(xc)+E(xc)   XCENC  =       -43.78471277
  PAW double counting   =      4436.62881804    -4262.21107198
  entropy T*S    EENTRO =        -0.00097784
  eigenvalues    EBANDS =       166.30132248
  atomic energy  EATOM  =      4149.06579846
  free energy    TOTEN  =       -10.87643909 eV

  energy without entropy =      -10.87546125  energy(sigma->0) =      -10.87611314

 average (electrostatic) potential at core
  the test charge radii are     1.1249
  (the norm of the test charge is              1.0000)
       1 -71.0970       2 -71.0970       3 -71.0970       4 -71.0970

 E-fermi :   8.1115     XC(G=0): -12.0352     alpha+bet :-13.0716

 k-point     1 :       0.0000    0.0000    0.0000
  band No.  band energies     occupation
      1       0.4731      2.00000
      2       1.7745      2.00000
      3       1.7745      2.00000
      4       1.7745      2.00000
      5       1.9031      2.00000
      6       1.9031      2.00000
      7       1.9031      2.00000
      8       3.3248      2.00000
      9       3.3248      2.00000
     10       3.3248      2.00000
     11       4.3069      2.00000
     12       4.3069      2.00000
     13       5.0312      2.00000
     14       5.0312      2.00000
     15       5.0312      2.00000
     16       5.2583      2.00000
     17       5.2583      2.00000
     18       5.2583      2.00000
     19       5.2583      2.00000
     20       5.2583      2.00000
     21       5.2583      2.00000
     22       9.6603     -0.00000
     23       9.6603     -0.00000
     24       9.6603     -0.00000
     25      14.5431      0.00000
     26      14.5431      0.00000

[...]

 k-point    56 :       0.4545    0.4545    0.4545
  band No.  band energies     occupation
      1       1.8244      2.00000
      2       1.8484      2.00000
      3       1.8484      2.00000
      4       1.8484      2.00000
      5       3.2838      2.00000
      6       3.2838      2.00000
      7       3.2838      2.00000
      8       3.3163      2.00000
      9       3.3163      2.00000
     10       3.3359      2.00000
     11       3.3359      2.00000
     12       3.3359      2.00000
     13       4.9284      2.00000
     14       4.9284      2.00000
     15       4.9284      2.00000
     16       5.0309      2.00000
     17       5.0309      2.00000
     18       5.0637      2.00000
     19       5.0637      2.00000
     20       5.0637      2.00000
     21       7.2719      2.00000
     22       7.8274      2.00044
     23       7.8274      2.00044
     24       7.8274      2.00044
     25      11.5491      0.00000
     26      11.5491      0.00000

 soft charge-density along one line, spin component           1
         0         1         2         3         4         5         6         7         8         9
 total charge-density along one line

------------------------ aborting loop because EDIFF is reached ----------------------------------------

 total charge

# of ion     s       p       d       tot
  1        0.412   0.281   9.158   9.851
  2        0.412   0.281   9.158   9.851
  3        0.412   0.281   9.158   9.851
  4        0.412   0.281   9.158   9.851
tot        1.648   1.124  36.633  39.405

  DFT-D2 method for vdW energy calculation

  Parameters of vdW forcefield:
         C6(Jnm^6/mol)     R0(A)
   Ag       5.481          1.819

  IVDW =   1
  VDW_RADIUS =    40.000 A
  VDW_S6 =     0.750
  VDW_SR =     1.000
  VDW_D =    20.000
  LVDW_EWALD = F

  Number of pair interactions contributing to vdW energy:   38176
  Edisp (eV):   -0.36306

  FORCE on cell =-STRESS in cart. coord.  units (eV):
  Direction    XX          YY          ZZ          XY          YZ          ZX
  Alpha Z   193.75628   193.75628   193.75628
  Ewald   -1290.77495 -1290.77495 -1290.77495     0.00000     0.00000    -0.00000
  Hartree   259.43598   259.43598   259.43598    -0.00000    -0.00000    -0.00000
  E(xc)    -232.52008  -232.52008  -232.52008    -0.00000     0.00000     0.00000
  Local     189.59504   189.59504   189.59504     0.00000     0.00000     0.00000
  n-local   -22.62343   -36.65448   -39.77971     0.37156     4.10497     1.43106
  augment   368.37568   368.37568   368.37568     0.00000    -0.00000    -0.00000
  Kinetic   553.06963   544.62751   539.34299    -3.77251     0.32109    -1.22598
  Fock        0.00000     0.00000     0.00000     0.00000     0.00000     0.00000
  vdW        -0.51612    -0.51612    -0.51612    -0.00000     0.00000     0.00000
  Total       0.01266     0.01266     0.01266    -0.00000     0.00000     0.00000
  in kB       0.28883     0.28883     0.28883    -0.00000     0.00000     0.00000

 VOLUME and BASIS-vectors are now :
  energy-cutoff  :      700.00
  volume of cell :       70.24
      direct lattice vectors                 reciprocal lattice vectors
     4.125970570  0.000000000  0.000000000     0.242367216  0.000000000  0.000000000
     0.000000000  4.125970570  0.000000000     0.000000000  0.242367216  0.000000000
     0.000000000  0.000000000  4.125970570     0.000000000  0.000000000  0.242367216

  length of vectors
     4.125970570  4.125970570  4.125970570     0.242367216  0.242367216  0.242367216

 FORCES acting on ions
    electron-ion (+dipol)            ewald-force                    non-local-force                 convergence-correction
   -.572E-14 0.732E-14 -.113E-12   0.158E-13 -.250E-14 -.100E-13   0.165E-22 -.331E-22 0.000E+00   -.277E-13 -.252E-14 0.210E-13
   -.501E-14 0.416E-12 0.312E-12   0.161E-13 0.637E-14 0.384E-14   0.199E-22 0.132E-22 0.000E+00   -.295E-13 -.444E-13 -.711E-13
   0.408E-12 0.481E-14 0.643E-11   -.166E-13 -.678E-14 0.376E-14   0.188E-22 -.662E-23 0.132E-22   -.201E-13 0.298E-14 -.790E-13
   0.410E-12 0.305E-11 0.187E-11   -.163E-13 0.209E-14 0.349E-15   0.000E+00 0.993E-23 0.662E-23   -.243E-13 -.424E-13 0.162E-13
   0.807E-12 0.348E-11 0.850E-11   -.980E-15 -.807E-15 -.210E-14   0.551E-22 -.165E-22 0.199E-22   -.101E-12 -.863E-13 -.113E-12

 POSITION                                       TOTAL-FORCE (eV/Angst)
      0.00000      0.00000      0.00000        -0.000000     -0.000000     -0.000000
      0.00000      2.06299      2.06299        -0.000000     -0.000000     -0.000000
      2.06299      0.00000      2.06299         0.000000     -0.000000      0.000000
      2.06299      2.06299      0.00000         0.000000      0.000000      0.000000
    total drift:                                0.000000      0.000000      0.000000

  FREE ENERGIE OF THE ION-ELECTRON SYSTEM (eV)
  free  energy   TOTEN  =       -11.23949637 eV

  energy  without entropy=      -11.23851853  energy(sigma->0) =      -11.23917043

 reached required accuracy - stopping structural energy minimisation
 writing wavefunctions

 total charge

# of ion     s       p       d       tot
  1        0.412   0.281   9.158   9.851
  2        0.412   0.281   9.158   9.851
  3        0.412   0.281   9.158   9.851
  4        0.412   0.281   9.158   9.851
tot        1.648   1.124  36.633  39.405