 vasp.5.3.5 31Mar14 (build Apr 25 2014 16:28:52) complex

 executed on             LinuxIFC date 2019.02.22  15:33:04

 INCAR:
 POTCAR:    PAW_PBE Co 02Aug2007
 POTCAR:    PAW_PBE Co 02Aug2007
   VRHFIN =Co: d8 s1

   TITEL  = PAW_PBE Co 02Aug2007
   POMASS =   58.933; ZVAL   =    9.000    mass and valenz
   ENMAX  =  267.968; ENMIN  =  200.976 eV

 Optimization of the real space projectors (new method)

 maximal supplied QI-value         = 16.25
 optimisation between [QCUT,QGAM] = [ 10.24, 20.48] = [ 29.35,117.42] Ry
 Optimized for a Real-space Cutoff    1.34 Angstroem

   l    n(q)    QCUT    max X(q) W(low)/X(q) W(high)/X(q)  e(spline)
   2      7    10.239    65.824    0.41E-03    0.10E-02    0.11E-06
   2      7    10.239    61.429    0.41E-03    0.10E-02    0.11E-06
   0      8    10.239    56.174    0.42E-03    0.17E-03    0.96E-07
   0      8    10.239    31.263    0.38E-03    0.16E-03    0.87E-07
   1      8    10.239    19.828    0.20E-03    0.56E-03    0.13E-06
   1      8    10.239    15.139    0.15E-03    0.46E-03    0.11E-06
  PAW_PBE Co 02Aug2007                  :

 POSCAR: Co
  positions in cartesian coordinates
 exchange correlation table for  LEXCH =        8
   RHO(1)=    0.500       N(1)  =     2000
   RHO(2)=  100.500       N(2)  =     4000

 ion  position               nearest neighbor table
   1  0.333  0.667  0.250-   2 2.45   2 2.45   2 2.45   2 2.45   2 2.45   2 2.45
   2  0.667  0.333  0.750-   1 2.45   1 2.45   1 2.45   1 2.45   1 2.45   1 2.45

  LATTYP: Found a hexagonal cell.
 ALAT       =     2.5055708885
 C/A-ratio  =     1.5823784966

  Lattice vectors:

 A1 = (   2.5055708885,   0.0000000000,   0.0000000000)
 A2 = (  -1.2527854443,   2.1698880404,   0.0000000000)
 A3 = (   0.0000000000,   0.0000000000,   3.9647614956)

Analysis of symmetry for initial positions (statically):
 Subroutine PRICEL returns:
 Original cell was already a primitive cell.

 Routine SETGRP: Setting up the symmetry group for a
 hexagonal supercell.

 Subroutine GETGRP returns: Found 24 space group operations
 (whereof 12 operations were pure point group operations)
 out of a pool of 24 trial point group operations.

The static configuration has the point symmetry D_3d.
 The point group associated with its full space group is D_6h.

Analysis of symmetry for dynamics (positions and initial velocities):
 Subroutine PRICEL returns:
 Original cell was already a primitive cell.

 Routine SETGRP: Setting up the symmetry group for a
 hexagonal supercell.

 Subroutine GETGRP returns: Found 24 space group operations
 (whereof 12 operations were pure point group operations)
 out of a pool of 24 trial point group operations.

The dynamic configuration has the point symmetry D_3d.
 The point group associated with its full space group is D_6h.

Analysis of magnetic symmetry:
 Subroutine PRICEL returns:
 Original cell was already a primitive cell.

 Subroutine MAGSYM returns: Found 24 space group operations
 (whereof 12 operations were pure point group operations)
 out of a pool of 24 trial space group operations
 (whereof 12 operations were pure point group operations)
 and found also     1 'primitive' translations

The magnetic configuration has the point symmetry D_3d.
 The point group associated with its full space group is D_6h.

 KPOINTS: K-points

Automatic generation of k-mesh.
Space group operators:
 irot       det(A)        alpha          n_x          n_y          n_z        tau_x        tau_y        tau_z
    1     1.000000     0.000000     1.000000     0.000000     0.000000     0.000000     0.000000     0.000000
    2    -1.000000     0.000000     1.000000     0.000000     0.000000     0.000000     0.000000     0.000000
    3     1.000000   120.000000     0.000000     0.000000    -1.000000     0.000000     0.000000     0.000000
    4    -1.000000   120.000000     0.000000     0.000000    -1.000000     0.000000     0.000000     0.000000
    5     1.000000   120.000000     0.000000     0.000000     1.000000     0.000000     0.000000     0.000000
    6    -1.000000   120.000000     0.000000     0.000000     1.000000     0.000000     0.000000     0.000000
    7     1.000000   180.000000     1.000000     0.000000     0.000000     0.000000     0.000000     0.000000
    8    -1.000000   180.000000     1.000000     0.000000     0.000000     0.000000     0.000000     0.000000
    9     1.000000   180.000000     0.500000    -0.866025     0.000000     0.000000     0.000000     0.000000
   10    -1.000000   180.000000     0.500000    -0.866025     0.000000     0.000000     0.000000     0.000000
   11     1.000000   180.000000    -0.500000    -0.866025     0.000000     0.000000     0.000000     0.000000
   12    -1.000000   180.000000    -0.500000    -0.866025     0.000000     0.000000     0.000000     0.000000
   13     1.000000    60.000000     0.000000     0.000000    -1.000000     0.000000     0.000000     0.500000
   14    -1.000000    60.000000     0.000000     0.000000    -1.000000     0.000000     0.000000     0.500000
   15     1.000000   180.000000     0.000000     0.000000     1.000000     0.000000     0.000000     0.500000
   16    -1.000000   180.000000     0.000000     0.000000     1.000000     0.000000     0.000000     0.500000
   17     1.000000    60.000000     0.000000     0.000000     1.000000     0.000000     0.000000     0.500000
   18    -1.000000    60.000000     0.000000     0.000000     1.000000     0.000000     0.000000     0.500000
   19     1.000000   180.000000     0.866025    -0.500000     0.000000     0.000000     0.000000     0.500000
   20    -1.000000   180.000000     0.866025    -0.500000     0.000000     0.000000     0.000000     0.500000
   21     1.000000   180.000000     0.000000     1.000000     0.000000     0.000000     0.000000     0.500000
   22    -1.000000   180.000000     0.000000     1.000000     0.000000     0.000000     0.000000     0.500000
   23     1.000000   180.000000     0.866025     0.500000     0.000000     0.000000     0.000000     0.500000
   24    -1.000000   180.000000     0.866025     0.500000     0.000000     0.000000     0.000000     0.500000

 Subroutine IBZKPT returns following result:

 Found    216 irreducible k-points:

 Following reciprocal coordinates:
            Coordinates               Weight
  0.000000  0.000000  0.000000      1.000000
  0.066667  0.000000  0.000000      6.000000
  0.133333  0.000000  0.000000      6.000000
  0.200000 -0.000000  0.000000      6.000000
  0.266667 -0.000000  0.000000      6.000000
  0.333333  0.000000  0.000000      6.000000
  0.400000 -0.000000  0.000000      6.000000
  0.466667  0.000000  0.000000      6.000000
  0.066667  0.066667  0.000000      6.000000
  0.133333  0.066667  0.000000     12.000000
  0.200000  0.066667  0.000000     12.000000
  0.266667  0.066667  0.000000     12.000000
  0.333333  0.066667  0.000000     12.000000
  0.400000  0.066667  0.000000     12.000000
  0.466667  0.066667  0.000000      6.000000
  0.133333  0.133333  0.000000      6.000000
  0.200000  0.133333  0.000000     12.000000
  0.266667  0.133333  0.000000     12.000000
  0.333333  0.133333  0.000000     12.000000
  0.400000  0.133333  0.000000     12.000000
  0.200000  0.200000  0.000000      6.000000
  0.266667  0.200000  0.000000     12.000000
  0.333333  0.200000  0.000000     12.000000
  0.400000  0.200000  0.000000      6.000000
  0.266667  0.266667  0.000000      6.000000
  0.333333  0.266667  0.000000     12.000000
  0.333333  0.333333  0.000000      2.000000
  0.000000  0.000000  0.066667      2.000000
  0.066667  0.000000  0.066667     12.000000
  0.133333  0.000000  0.066667     12.000000
  0.200000 -0.000000  0.066667     12.000000
  0.266667 -0.000000  0.066667     12.000000
  0.333333  0.000000  0.066667     12.000000
  0.400000 -0.000000  0.066667     12.000000
  0.466667  0.000000  0.066667     12.000000
  0.066667  0.066667  0.066667     12.000000
  0.133333  0.066667  0.066667     24.000000
  0.200000  0.066667  0.066667     24.000000
  0.266667  0.066667  0.066667     24.000000
  0.333333  0.066667  0.066667     24.000000
  0.400000  0.066667  0.066667     24.000000
  0.466667  0.066667  0.066667     12.000000
  0.133333  0.133333  0.066667     12.000000
  0.200000  0.133333  0.066667     24.000000
  0.266667  0.133333  0.066667     24.000000
  0.333333  0.133333  0.066667     24.000000
  0.400000  0.133333  0.066667     24.000000
  0.200000  0.200000  0.066667     12.000000
  0.266667  0.200000  0.066667     24.000000
  0.333333  0.200000  0.066667     24.000000
  0.400000  0.200000  0.066667     12.000000
  0.266667  0.266667  0.066667     12.000000
  0.333333  0.266667  0.066667     24.000000
  0.333333  0.333333  0.066667      4.000000
  0.000000  0.000000  0.133333      2.000000
  0.066667  0.000000  0.133333     12.000000
  0.133333  0.000000  0.133333     12.000000
  0.200000 -0.000000  0.133333     12.000000
  0.266667 -0.000000  0.133333     12.000000
  0.333333  0.000000  0.133333     12.000000
[...]
  0.333333  0.066667  0.466667     24.000000
  0.400000  0.066667  0.466667     24.000000
  0.466667  0.066667  0.466667     12.000000
  0.133333  0.133333  0.466667     12.000000
  0.200000  0.133333  0.466667     24.000000
  0.266667  0.133333  0.466667     24.000000
  0.333333  0.133333  0.466667     24.000000
  0.400000  0.133333  0.466667     24.000000
  0.200000  0.200000  0.466667     12.000000
  0.266667  0.200000  0.466667     24.000000
  0.333333  0.200000  0.466667     24.000000
  0.400000  0.200000  0.466667     12.000000
  0.266667  0.266667  0.466667     12.000000
  0.333333  0.266667  0.466667     24.000000
  0.333333  0.333333  0.466667      4.000000

 Following cartesian coordinates:
            Coordinates               Weight
  0.000000  0.000000  0.000000      1.000000
  0.026607  0.015362  0.000000      6.000000
  0.053215  0.030724  0.000000      6.000000
  0.079822  0.046085  0.000000      6.000000
  0.106430  0.061447  0.000000      6.000000
  0.133037  0.076809  0.000000      6.000000
  0.159644  0.092171  0.000000      6.000000
  0.186252  0.107532  0.000000      6.000000
  0.026607  0.046085  0.000000      6.000000
  0.053215  0.061447  0.000000     12.000000
  0.079822  0.076809  0.000000     12.000000
  0.106430  0.092171  0.000000     12.000000
  0.133037  0.107532  0.000000     12.000000
  0.159644  0.122894  0.000000     12.000000
  0.186252  0.138256  0.000000      6.000000
  0.053215  0.092171  0.000000      6.000000
  0.079822  0.107532  0.000000     12.000000
  0.106430  0.122894  0.000000     12.000000
  0.133037  0.138256  0.000000     12.000000
  0.159644  0.153618  0.000000     12.000000
  0.079822  0.138256  0.000000      6.000000
  0.106430  0.153618  0.000000     12.000000
  0.133037  0.168980  0.000000     12.000000
  0.159644  0.184341  0.000000      6.000000
  0.106430  0.184341  0.000000      6.000000
  0.133037  0.199703  0.000000     12.000000
  0.133037  0.230427  0.000000      2.000000
  0.000000  0.000000  0.016815      2.000000
  0.026607  0.015362  0.016815     12.000000
  0.053215  0.030724  0.016815     12.000000
  0.079822  0.046085  0.016815     12.000000
  0.106430  0.061447  0.016815     12.000000
[...]
 k-point ** :   0.2667 0.2000 0.2667  plane waves:     394
 k-point ** :   0.3333 0.2000 0.2667  plane waves:     394
 k-point ** :   0.4000 0.2000 0.2667  plane waves:     392
 k-point ** :   0.2667 0.2667 0.2667  plane waves:     398
 k-point ** :   0.3333 0.2667 0.2667  plane waves:     395
 k-point ** :   0.3333 0.3333 0.2667  plane waves:     393
 k-point ** :   0.0000 0.0000 0.3333  plane waves:     367
 k-point ** :   0.0667 0.0000 0.3333  plane waves:     369
 k-point ** :   0.1333 0.0000 0.3333  plane waves:     378
 k-point ** :   0.2000-0.0000 0.3333  plane waves:     386
 k-point ** :   0.2667-0.0000 0.3333  plane waves:     389
 k-point ** :   0.3333 0.0000 0.3333  plane waves:     396
 k-point ** :   0.4000-0.0000 0.3333  plane waves:     399
 k-point ** :   0.4667 0.0000 0.3333  plane waves:     395
 k-point ** :   0.0667 0.0667 0.3333  plane waves:     380
 k-point ** :   0.1333 0.0667 0.3333  plane waves:     384
 k-point ** :   0.2000 0.0667 0.3333  plane waves:     392
 k-point ** :   0.2667 0.0667 0.3333  plane waves:     392
 k-point ** :   0.3333 0.0667 0.3333  plane waves:     392
 k-point ** :   0.4000 0.0667 0.3333  plane waves:     393
 k-point ** :   0.4667 0.0667 0.3333  plane waves:     391
 k-point ** :   0.1333 0.1333 0.3333  plane waves:     389
 k-point ** :   0.2000 0.1333 0.3333  plane waves:     390
 k-point ** :   0.2667 0.1333 0.3333  plane waves:     393
 k-point ** :   0.3333 0.1333 0.3333  plane waves:     395
 k-point ** :   0.4000 0.1333 0.3333  plane waves:     395
 k-point ** :   0.2000 0.2000 0.3333  plane waves:     389
 k-point ** :   0.2667 0.2000 0.3333  plane waves:     393
 k-point ** :   0.3333 0.2000 0.3333  plane waves:     397
 k-point ** :   0.4000 0.2000 0.3333  plane waves:     399
[...]
 k-point ** :   0.3333 0.0667 0.4667  plane waves:     394
 k-point ** :   0.4000 0.0667 0.4667  plane waves:     391
 k-point ** :   0.4667 0.0667 0.4667  plane waves:     393
 k-point ** :   0.1333 0.1333 0.4667  plane waves:     388
 k-point ** :   0.2000 0.1333 0.4667  plane waves:     392
 k-point ** :   0.2667 0.1333 0.4667  plane waves:     392
 k-point ** :   0.3333 0.1333 0.4667  plane waves:     394
 k-point ** :   0.4000 0.1333 0.4667  plane waves:     393
 k-point ** :   0.2000 0.2000 0.4667  plane waves:     384
 k-point ** :   0.2667 0.2000 0.4667  plane waves:     390
 k-point ** :   0.3333 0.2000 0.4667  plane waves:     390
 k-point ** :   0.4000 0.2000 0.4667  plane waves:     398
 k-point ** :   0.2667 0.2667 0.4667  plane waves:     390
 k-point ** :   0.3333 0.2667 0.4667  plane waves:     390
 k-point ** :   0.3333 0.3333 0.4667  plane waves:     402

 maximum and minimum number of plane-waves per node :        73       52

 maximum number of plane-waves:       403
 maximum index in each direction:
   IXMAX=    4   IYMAX=    4   IZMAX=    6
   IXMIN=   -4   IYMIN=   -4   IZMIN=   -6

 WARNING: aliasing errors must be expected set NGX to  18 to avoid them
 WARNING: aliasing errors must be expected set NGY to  18 to avoid them
 WARNING: aliasing errors must be expected set NGZ to  26 to avoid them
 aliasing errors are usually negligible using standard VASP settings
 and one can safely disregard these warnings

 real space projection operators:
  max/ min on nodes  :         62.58         61.03

 parallel 3D FFT for wavefunctions:
    minimum data exchange during FFTs selected (reduces bandwidth)
 parallel 3D FFT for charge:
    minimum data exchange during FFTs selected (reduces bandwidth)

 Broyden mixing: mesh for mixing (old mesh)
   NGX =  9   NGY =  9   NGZ = 13
  (NGX  = 24   NGY  = 24   NGZ  = 40)
  gives a total of   1053 points

 initial charge density was supplied:
 charge density of overlapping atoms calculated
 number of electron      18.0000000 magnetization       2.0000000
 keeping initial charge density in first step

 Maximum index for non-local projection operator          218
 Maximum index for augmentation-charges          462 (set IRDMAX)

 First call to EWALD:  gamma=   0.637
 Maximum number of real-space cells 3x 3x 2
 Maximum number of reciprocal cells 3x 3x 4

 FEWALD executed in parallel

----------------------------------------- Iteration    1(   1)  ---------------------------------------

 eigenvalue-minimisations  : 12278
 total energy-change (2. order) : 0.7332365E+02  (-0.7312160E+03)
 number of electron      18.0000000 magnetization       2.0000000
 augmentation part       18.0000000 magnetization       2.0000000

 Free energy of the ion-electron system (eV)
  alpha Z        PSCENC =        78.60156271
  Ewald energy   TEWEN  =     -1524.83234024
  -Hartree energ DENC   =      -298.76180751
  -exchange      EXHF   =         0.00000000
  -V(xc)+E(xc)   XCENC  =        33.73926806
  PAW double counting   =      1441.79823131    -1547.83988098
  entropy T*S    EENTRO =        -0.00041665
  eigenvalues    EBANDS =       263.90356087
  atomic energy  EATOM  =      1626.71546820
  free energy    TOTEN  =        73.32364578 eV

  energy without entropy =       73.32406242  energy(sigma->0) =       73.32378466

[...]

 eigenvalue-minimisations  : 12102
 total energy-change (2. order) :-0.8765412E+02  (-0.8153451E+02)
 number of electron      18.0000000 magnetization       2.0000000
 augmentation part       18.0000000 magnetization       2.0000000

[...]

 Broyden mixing:
  rms(total) = 0.14582E+01    rms(broyden)= 0.14582E+01
  rms(prec ) = 0.26962E+01
  weight for this iteration     100.00

[...]

 eigenvalues of (default mixing * dielectric matrix)
  average eigenvalue GAMMA=   0.5241
  0.5241

[...]

 average (electrostatic) potential at core
  the test charge radii are     1.0452
  (the norm of the test charge is              1.0000)
       1 -78.2000       2 -78.2000

 E-fermi :  10.3311     XC(G=0): -13.4431     alpha+bet :-17.8463

 spin component 1

 k-point     1 :       0.0000    0.0000    0.0000
  band No.  band energies     occupation
      1       1.4041      1.00000
      2       5.2041      1.00000
      3       7.7342      1.00000
      4       7.7342      1.00000
      5       7.8318      1.00000
      6       8.0746      1.00000
      7       8.0746      1.00000
      8       8.3450      1.00000
      9       8.3450      1.00000
     10       9.5399      1.00000
     11       9.5399      1.00000
     12      10.5233     -0.01021
     13      17.0801      0.00000
     14      32.0988      0.00000

[...]

 soft charge-density along one line, spin component           1
         0         1         2         3         4         5         6         7         8         9
 total charge-density along one line

[...]

------------------------ aborting loop because EDIFF is reached ----------------------------------------

 total charge

# of ion     s       p       d       tot
  1        0.492   0.528   7.265   8.285
  2        0.492   0.528   7.265   8.285
tot        0.985   1.056  14.530  16.570

 magnetization (x)

[...]

  DFT-D2 method for vdW energy calculation

  Parameters of vdW forcefield:
         C6(Jnm^6/mol)     R0(A)
   Co       2.565          1.349

  IVDW =   1
  VDW_RADIUS =    40.000 A
  VDW_S6 =     0.750
  VDW_SR =     1.000
  VDW_D =    20.000
  LVDW_EWALD = F

  Number of pair interactions contributing to vdW energy:   37246
  Edisp (eV):   -0.38129

  FORCE on cell =-STRESS in cart. coord.  units (eV):
  Direction    XX          YY          ZZ          XY          YZ          ZX
  Alpha Z    78.60156    78.60156    78.60156
  Ewald    -514.98585  -514.98583  -494.86172    -0.00001     0.00000     0.00000
  Hartree    84.90434    84.90435    93.75089    -0.00000    -0.00000    -0.00000
  E(xc)     -92.57114   -92.57105   -92.60097     0.00008     0.00000     0.00000
  Local      -9.60714    -9.60764   -38.05556    -0.00041    -0.00001    -0.00001
  n-local    -9.85684    -9.65303    -9.14381    -6.26882     1.93359     1.89763
  augment   311.00152   311.00186   310.77661     0.00030     0.00001     0.00000
  Kinetic   153.56631   150.89300   152.16426     3.87335     0.22096     0.78431
  Fock        0.00000     0.00000     0.00000     0.00000     0.00000     0.00000
  vdW         0.13275     0.13275     0.05892    -0.00000    -0.00000    -0.00000
  Total      -0.04925    -0.04925     0.69018     0.00000     0.00000     0.00000
  in kB      -3.66063    -3.66063    51.29948     0.00000     0.00000     0.00000

 VOLUME and BASIS-vectors are now :
  energy-cutoff  :      400.00
  volume of cell :       21.56
      direct lattice vectors                 reciprocal lattice vectors
     2.505570888  0.000000000  0.000000000     0.399110640  0.230426635  0.000000000
    -1.252785444  2.169888040  0.000000000     0.000000000  0.460853270  0.000000000
     0.000000000  0.000000000  3.964761496     0.000000000  0.000000000  0.252221981

[...]

 FORCES acting on ions
    electron-ion (+dipol)            ewald-force                    non-local-force                 convergence-correction
   0.384E-05 0.236E-05 0.212E-04   -.428E-05 -.333E-05 -.364E-04   -.191E-16 0.347E-17 -.434E-17   0.101E-07 0.651E-08 0.232E-06
   -.634E-05 -.212E-05 -.224E-04   0.428E-05 0.333E-05 0.364E-04   0.156E-16 -.347E-17 0.434E-17   -.202E-07 -.278E-08 -.234E-06
   -.250E-05 0.243E-06 -.120E-05   0.297E-14 -.698E-14 0.000E+00   -.347E-17 0.000E+00 0.000E+00   -.101E-07 0.373E-08 -.127E-08

 POSITION                                       TOTAL-FORCE (eV/Angst)
      0.00000      1.44659      0.99119        -0.000000      0.000000     -0.000000
      1.25279      0.72330      2.97357         0.000000     -0.000000      0.000000
    total drift:                               -0.000003      0.000000     -0.000001

  FREE ENERGIE OF THE ION-ELECTRON SYSTEM (eV)
  free  energy   TOTEN  =       -14.45052781 eV

  energy  without entropy=      -14.45001395  energy(sigma->0) =      -14.45035653

 Quasi-Newton relaxation of ions (Broydens 2nd method)
  g(Force)  = 0.900E-45   g(Stress)= 0.232E-02

 Reset! Starting new Quasi-Newton update for ions

[...]

 d Force = 0.0000000E+00[ 0.000E+00, 0.000E+00]  d Energy = 0.2120686E-02-0.212E-02
 d Force = 0.0000000E+00[ 0.000E+00, 0.000E+00]  d Ewald  =-0.1401998E+01 0.140E+01

[...]

 retain information from N=  1 steps
 eigenvalues of (default step * inverse Hessian matrix)
  average eigenvalue of G=   5.2825
 eigenvalue spectrum of G is  5.2825

[...]

 d Force = 0.0000000E+00[ 0.000E+00, 0.000E+00]  d Energy = 0.3142752E-02-0.314E-02
 d Force = 0.0000000E+00[ 0.000E+00, 0.000E+00]  d Ewald  =-0.5467452E+01 0.547E+01

[...]

 FEWALD executed in parallel

 real space projection operators:
  max/ min on nodes  :         62.58         61.03

[...]

 eigenvalue-minimisations  : 12990
 total energy-change (2. order) :-0.8692665E-02  (-0.1370179E-01)
 number of electron      17.9999951 magnetization       3.2320930
 augmentation part       10.2028545 magnetization       2.9214090

[...]

 Broyden mixing:
  rms(total) = 0.54541E-03    rms(broyden)= 0.54489E-03
  rms(prec ) = 0.67450E-03
  weight for this iteration     100.00

 eigenvalues of (default mixing * dielectric matrix)
  average eigenvalue GAMMA=   1.1983
  2.3316  1.5640  0.8049  0.6826  0.6087

[...]

----------------------------------------- Iteration    4(   7)  ---------------------------------------

 eigenvalue-minimisations  :  6920
 total energy-change (2. order) : 0.8876418E-07  (-0.8539882E-07)
 number of electron      17.9999951 magnetization       3.2303136
 augmentation part       10.2581151 magnetization       2.9169948

 Free energy of the ion-electron system (eV)
  alpha Z        PSCENC =        77.91637609
  Ewald energy   TEWEN  =     -1520.54057995
  -Hartree energ DENC   =      -265.27956845
  -exchange      EXHF   =         0.00000000
  -V(xc)+E(xc)   XCENC  =        32.83448866
  PAW double counting   =      1804.45700575    -1910.45266291
  entropy T*S    EENTRO =        -0.00019079
  eigenvalues    EBANDS =       140.27520348
  atomic energy  EATOM  =      1626.71546820
  free energy    TOTEN  =       -14.07445991 eV

  energy without entropy =      -14.07426912  energy(sigma->0) =      -14.07439631

 average (electrostatic) potential at core
  the test charge radii are     1.0452
  (the norm of the test charge is              1.0000)
       1 -78.3211       2 -78.3211

 E-fermi :  10.2138     XC(G=0): -13.3925     alpha+bet :-17.6907

[...]

 spin component 2

[...]

 k-point   216 :       0.3333    0.3333    0.4667
  band No.  band energies     occupation
      1       7.6330      1.00000
      2       7.6694      1.00000
      3       7.7151      1.00000
      4       7.7151      1.00000
      5       8.5155      1.00000
      6       8.5155      1.00000
      7      10.0079      1.00658
      8      10.1255      1.00831
      9      11.2971     -0.00000
     10      11.2971     -0.00000
     11      16.5003      0.00000
     12      16.5003      0.00000
     13      17.9177      0.00000
     14      18.5068      0.00000

[...]

 soft charge-density along one line, spin component           2
         0         1         2         3         4         5         6         7         8         9
 total charge-density along one line

------------------------ aborting loop because EDIFF is reached ----------------------------------------

[...]

  Number of pair interactions contributing to vdW energy:   36798
  Edisp (eV):   -0.38177

  FORCE on cell =-STRESS in cart. coord.  units (eV):
  Direction    XX          YY          ZZ          XY          YZ          ZX
  Alpha Z    77.91638    77.91638    77.91638
  Ewald    -510.74347  -510.74346  -499.05471    -0.00001     0.00000     0.00000
  Hartree    86.68390    86.68391    91.91799    -0.00000    -0.00000    -0.00000
  E(xc)     -92.50508   -92.50498   -92.51602     0.00008     0.00000     0.00000
  Local     -14.80456   -14.80506   -31.29952    -0.00041    -0.00001    -0.00001
  n-local   -10.03010    -9.81912    -9.65334    -6.36969     1.89379     1.85600
  augment   311.11463   311.11497   310.90828     0.00029     0.00001     0.00000
  Kinetic   153.40846   150.64382   151.85358     3.99586     0.21679     0.80934
  Fock        0.00000     0.00000     0.00000     0.00000     0.00000     0.00000
  vdW         0.13928     0.13928     0.09892    -0.00000    -0.00000    -0.00000
  Total      -0.09741    -0.09741     0.17155     0.00000    -0.00000    -0.00000
  in kB      -7.17714    -7.17714    12.64008     0.00000    -0.00000    -0.00000

 VOLUME and BASIS-vectors are now :
  energy-cutoff  :      400.00
  volume of cell :       21.75
      direct lattice vectors                 reciprocal lattice vectors
     2.500927526  0.000000000  0.000000000     0.399851651  0.230854458  0.000000000
    -1.250463763  2.165866771  0.000000000    -0.000000000  0.461708916  0.000000000
    -0.000000000 -0.000000000  4.014492751    -0.000000000 -0.000000000  0.249097473

  length of vectors
     2.500927526  2.500927526  4.014492751     0.461708916  0.461708916  0.249097473

 FORCES acting on ions
    electron-ion (+dipol)            ewald-force                    non-local-force                 convergence-correction
   0.351E-05 0.233E-05 0.213E-04   -.397E-05 -.308E-05 -.368E-04   -.694E-17 -.208E-16 -.347E-17   0.185E-08 -.202E-08 -.319E-09
   -.606E-05 -.208E-05 -.224E-04   0.397E-05 0.308E-05 0.368E-04   -.347E-17 0.208E-16 -.347E-17   -.614E-09 0.163E-08 -.340E-09
   -.254E-05 0.257E-06 -.107E-05   0.270E-14 -.813E-14 -.663E-17   -.104E-16 0.893E-26 -.694E-17   0.124E-08 -.389E-09 -.659E-09

 POSITION                                       TOTAL-FORCE (eV/Angst)
      0.00000      1.44391      1.00362         0.000000     -0.000000     -0.000000
      1.25046      0.72196      3.01087        -0.000000      0.000000      0.000000
    total drift:                               -0.000003      0.000000     -0.000001

  FREE ENERGIE OF THE ION-ELECTRON SYSTEM (eV)
  free  energy   TOTEN  =       -14.45622722 eV

  energy  without entropy=      -14.45603644  energy(sigma->0) =      -14.45616363

 d Force = 0.0000000E+00[ 0.000E+00, 0.000E+00]  d Energy = 0.4359760E-03-0.436E-03
 d Force = 0.0000000E+00[ 0.000E+00, 0.000E+00]  d Ewald  = 0.2577690E+01-0.258E+01

 Quasi-Newton relaxation of ions (Broydens 2nd method)
  g(Force)  = 0.366E-44   g(Stress)= 0.234E-03

 retain information from N=  1 steps
 eigenvalues of (default step * inverse Hessian matrix)
  average eigenvalue of G=   2.2105
 eigenvalue spectrum of G is  2.2105

 reached required accuracy - stopping structural energy minimisation
 writing wavefunctions

 total charge

[...]

 magnetization (x)

# of ion     s       p       d       tot
  1       -0.015  -0.055   1.705   1.636
  2       -0.015  -0.055   1.705   1.636
tot       -0.030  -0.109   3.411   3.271