 vasp.5.3.5 31Mar14 (build Apr 25 2014 16:28:52) complex

 executed on             LinuxIFC date 2019.02.22  15:31:00

 INCAR:
 POTCAR:    PAW_PBE Ir 06Sep2000
 POTCAR:    PAW_PBE Ir 06Sep2000

 Optimization of the real space projectors (new method)

 maximal supplied QI-value         = 14.36
 optimisation between [QCUT,QGAM] = [ 13.50, 27.00] = [ 51.04,204.15] Ry
 Optimized for a Real-space Cutoff    1.49 Angstroem

   l    n(q)    QCUT    max X(q) W(low)/X(q) W(high)/X(q)  e(spline)
   2     11    13.500   134.116    0.27E-03    0.27E-03    0.12E-05
   2     11    13.500   130.192    0.27E-03    0.27E-03    0.12E-05
   0     12    13.500    60.310    0.56E-04    0.59E-05    0.98E-06
   0     12    13.500    39.218    0.52E-04    0.59E-05    0.91E-06
   1     12    13.500    18.439    0.42E-04    0.80E-04    0.71E-06
   1     12    13.500    12.760    0.31E-04    0.64E-04    0.59E-06
  PAW_PBE Ir 06Sep2000                  :

 POSCAR: Ir
  positions in direct lattice
  velocities in cartesian coordinates
 exchange correlation table for  LEXCH =        8
   RHO(1)=    0.500       N(1)  =     2000
   RHO(2)=  100.500       N(2)  =     4000

 ion  position               nearest neighbor table
   1  0.000  0.000  0.000-   2 2.71   3 2.71   4 2.71   2 2.71   3 2.71   2 2.71   4 2.71   2 2.71
                             3 2.71   4 2.71   3 2.71   4 2.71
   2  0.000  0.500  0.500-   1 2.71   3 2.71   4 2.71   1 2.71   4 2.71   1 2.71   3 2.71   1 2.71
                             3 2.71   4 2.71   4 2.71   3 2.71
   3  0.500  0.000  0.500-   1 2.71   2 2.71   4 2.71   1 2.71   4 2.71   2 2.71   4 2.71   4 2.71
                             1 2.71   2 2.71   1 2.71   2 2.71
   4  0.500  0.500  0.000-   1 2.71   2 2.71   3 2.71   2 2.71   3 2.71   1 2.71   3 2.71   3 2.71
                             1 2.71   2 2.71   2 2.71   1 2.71

  LATTYP: Found a simple cubic cell.
 ALAT       =     3.8390000000

  Lattice vectors:

 A1 = (   3.8390000000,   0.0000000000,   0.0000000000)
 A2 = (   0.0000000000,   3.8390000000,   0.0000000000)
 A3 = (   0.0000000000,   0.0000000000,   3.8390000000)

Analysis of symmetry for initial positions (statically):
 Subroutine PRICEL returns following result:

  LATTYP: Found a face centered cubic cell.
 ALAT       =     3.8390000000

[...]

   4 primitive cells build up your supercell.

 Routine SETGRP: Setting up the symmetry group for a
 simple cubic supercell.

 Subroutine GETGRP returns: Found 48 space group operations
 (whereof 48 operations were pure point group operations)
 out of a pool of 48 trial point group operations.

The static configuration has the point symmetry O_h .

Analysis of symmetry for dynamics (positions and initial velocities):
 Subroutine PRICEL returns following result:

  LATTYP: Found a face centered cubic cell.
 ALAT       =     3.8390000000

  Lattice vectors:

 A1 = (   1.9195000000,   1.9195000000,   0.0000000000)
 A2 = (   1.9195000000,   0.0000000000,  -1.9195000000)
 A3 = (   0.0000000000,   1.9195000000,  -1.9195000000)

   4 primitive cells build up your supercell.

 Routine SETGRP: Setting up the symmetry group for a
 simple cubic supercell.

 Subroutine GETGRP returns: Found 48 space group operations
 (whereof 48 operations were pure point group operations)
 out of a pool of 48 trial point group operations.

The dynamic configuration has the point symmetry O_h .

 KPOINTS: K-POINTS

Automatic generation of k-mesh.
Space group operators:
 irot       det(A)        alpha          n_x          n_y          n_z        tau_x        tau_y        tau_z
    1     1.000000     0.000000     1.000000     0.000000     0.000000     0.000000     0.000000     0.000000
    2    -1.000000     0.000000     1.000000     0.000000     0.000000     0.000000     0.000000     0.000000
    3     1.000000   120.000000    -0.577350    -0.577350    -0.577350     0.000000     0.000000     0.000000
    4    -1.000000   120.000000    -0.577350    -0.577350    -0.577350     0.000000     0.000000     0.000000
    5     1.000000   120.000000     0.577350     0.577350     0.577350     0.000000     0.000000     0.000000
    6    -1.000000   120.000000     0.577350     0.577350     0.577350     0.000000     0.000000     0.000000
    7     1.000000    90.000000     0.000000     0.000000    -1.000000     0.000000     0.000000     0.000000
    8    -1.000000    90.000000     0.000000     0.000000    -1.000000     0.000000     0.000000     0.000000
    9     1.000000   180.000000     0.000000     0.707107     0.707107     0.000000     0.000000     0.000000
   10    -1.000000   180.000000     0.000000     0.707107     0.707107     0.000000     0.000000     0.000000
   11     1.000000    90.000000     0.000000     1.000000     0.000000     0.000000     0.000000     0.000000
   12    -1.000000    90.000000     0.000000     1.000000     0.000000     0.000000     0.000000     0.000000
   13     1.000000   180.000000     0.000000     0.000000     1.000000     0.000000     0.000000     0.000000
   14    -1.000000   180.000000     0.000000     0.000000     1.000000     0.000000     0.000000     0.000000
   15     1.000000   120.000000    -0.577350     0.577350     0.577350     0.000000     0.000000     0.000000
   16    -1.000000   120.000000    -0.577350     0.577350     0.577350     0.000000     0.000000     0.000000
   17     1.000000   120.000000    -0.577350     0.577350    -0.577350     0.000000     0.000000     0.000000
   18    -1.000000   120.000000    -0.577350     0.577350    -0.577350     0.000000     0.000000     0.000000
   19     1.000000    90.000000     0.000000     0.000000     1.000000     0.000000     0.000000     0.000000
   20    -1.000000    90.000000     0.000000     0.000000     1.000000     0.000000     0.000000     0.000000
   21     1.000000    90.000000    -1.000000     0.000000     0.000000     0.000000     0.000000     0.000000
   22    -1.000000    90.000000    -1.000000     0.000000     0.000000     0.000000     0.000000     0.000000
   23     1.000000   180.000000     0.707107     0.000000     0.707107     0.000000     0.000000     0.000000
   24    -1.000000   180.000000     0.707107     0.000000     0.707107     0.000000     0.000000     0.000000
   25     1.000000   120.000000     0.577350    -0.577350     0.577350     0.000000     0.000000     0.000000
   26    -1.000000   120.000000     0.577350    -0.577350     0.577350     0.000000     0.000000     0.000000
   27     1.000000   120.000000    -0.577350    -0.577350     0.577350     0.000000     0.000000     0.000000
   28    -1.000000   120.000000    -0.577350    -0.577350     0.577350     0.000000     0.000000     0.000000
   29     1.000000   180.000000     1.000000     0.000000     0.000000     0.000000     0.000000     0.000000
   30    -1.000000   180.000000     1.000000     0.000000     0.000000     0.000000     0.000000     0.000000
   31     1.000000    90.000000     0.000000    -1.000000     0.000000     0.000000     0.000000     0.000000
   32    -1.000000    90.000000     0.000000    -1.000000     0.000000     0.000000     0.000000     0.000000
   33     1.000000   180.000000     0.707107     0.707107     0.000000     0.000000     0.000000     0.000000
   34    -1.000000   180.000000     0.707107     0.707107     0.000000     0.000000     0.000000     0.000000
   35     1.000000    90.000000     1.000000     0.000000     0.000000     0.000000     0.000000     0.000000
   36    -1.000000    90.000000     1.000000     0.000000     0.000000     0.000000     0.000000     0.000000
   37     1.000000   120.000000     0.577350    -0.577350    -0.577350     0.000000     0.000000     0.000000
   38    -1.000000   120.000000     0.577350    -0.577350    -0.577350     0.000000     0.000000     0.000000
   39     1.000000   180.000000     0.000000     1.000000     0.000000     0.000000     0.000000     0.000000
   40    -1.000000   180.000000     0.000000     1.000000     0.000000     0.000000     0.000000     0.000000
   41     1.000000   120.000000     0.577350     0.577350    -0.577350     0.000000     0.000000     0.000000
   42    -1.000000   120.000000     0.577350     0.577350    -0.577350     0.000000     0.000000     0.000000
   43     1.000000   180.000000     0.000000    -0.707107     0.707107     0.000000     0.000000     0.000000
   44    -1.000000   180.000000     0.000000    -0.707107     0.707107     0.000000     0.000000     0.000000
   45     1.000000   180.000000     0.707107    -0.707107     0.000000     0.000000     0.000000     0.000000
   46    -1.000000   180.000000     0.707107    -0.707107     0.000000     0.000000     0.000000     0.000000
   47     1.000000   180.000000     0.707107     0.000000    -0.707107     0.000000     0.000000     0.000000
   48    -1.000000   180.000000     0.707107     0.000000    -0.707107     0.000000     0.000000     0.000000

 Subroutine IBZKPT returns following result:

 Found     28 irreducible k-points:

 Following reciprocal coordinates:
            Coordinates               Weight
  0.000000  0.000000  0.000000      1.000000
  0.076923  0.000000  0.000000      4.000000
  0.153846  0.000000  0.000000      4.000000
  0.230769  0.000000  0.000000      4.000000
  0.307692  0.000000  0.000000      4.000000
  0.384615  0.000000  0.000000      4.000000
  0.461538  0.000000  0.000000      4.000000
  0.076923  0.076923  0.000000      4.000000
  0.153846  0.076923  0.000000      8.000000
  0.230769  0.076923  0.000000      8.000000
  0.307692  0.076923  0.000000      8.000000
  0.384615  0.076923  0.000000      8.000000
  0.461538  0.076923  0.000000      8.000000
  0.153846  0.153846  0.000000      4.000000
  0.230769  0.153846  0.000000      8.000000
  0.307692  0.153846  0.000000      8.000000
  0.384615  0.153846  0.000000      8.000000
  0.461538  0.153846  0.000000      8.000000
  0.230769  0.230769  0.000000      4.000000
  0.307692  0.230769  0.000000      8.000000
  0.384615  0.230769  0.000000      8.000000
  0.461538  0.230769  0.000000      8.000000
  0.307692  0.307692  0.000000      4.000000
  0.384615  0.307692  0.000000      8.000000
  0.461538  0.307692  0.000000      8.000000
  0.384615  0.384615  0.000000      4.000000
  0.461538  0.384615  0.000000      8.000000
  0.461538  0.461538  0.000000      4.000000

 Following cartesian coordinates:
            Coordinates               Weight
  0.000000  0.000000  0.000000      1.000000
  0.020037  0.000000  0.000000      4.000000
  0.040075  0.000000  0.000000      4.000000
  0.060112  0.000000  0.000000      4.000000
  0.080149  0.000000  0.000000      4.000000
  0.100186  0.000000  0.000000      4.000000
  0.120224  0.000000  0.000000      4.000000
  0.020037  0.020037  0.000000      4.000000
  0.040075  0.020037  0.000000      8.000000
  0.060112  0.020037  0.000000      8.000000
  0.080149  0.020037  0.000000      8.000000
  0.100186  0.020037  0.000000      8.000000
  0.120224  0.020037  0.000000      8.000000
  0.040075  0.040075  0.000000      4.000000
  0.060112  0.040075  0.000000      8.000000
  0.080149  0.040075  0.000000      8.000000
  0.100186  0.040075  0.000000      8.000000
  0.120224  0.040075  0.000000      8.000000
[...]

 conjugate gradient relaxation of ions
 charge density and potential will be updated during run
 non-spin polarized calculation
 RMM-DIIS sequential band-by-band and
  variant of blocked Davidson during initial phase
 perform sub-space diagonalisation
    before iterative eigenvector-optimisation
 modified Broyden-mixing scheme, WC =      100.0
 initial mixing is a Kerker type mixing with AMIX =  0.4000 and BMIX =      1.0000
 Hartree-type preconditioning will be used
 using additional bands            4
 real space projection scheme for non local part
 use partial core corrections
 calculate Harris-corrections to forces
   (improved forces if not selfconsistent)
 use gradient corrections
 use of overlap-Matrix (Vanderbilt PP)
 Methfessel and Paxton  Order N= 1 SIGMA  =   0.10

  energy-cutoff  :      700.00
  volume of cell :       56.58
      direct lattice vectors                 reciprocal lattice vectors
     3.839000000  0.000000000  0.000000000     0.260484501  0.000000000  0.000000000
     0.000000000  3.839000000  0.000000000     0.000000000  0.260484501  0.000000000
     0.000000000  0.000000000  3.839000000     0.000000000  0.000000000  0.260484501

  length of vectors
     3.839000000  3.839000000  3.839000000     0.260484501  0.260484501  0.260484501

 k-points in units of 2pi/SCALE and weight: K-POINTS
   0.00000000  0.00000000  0.00000000       0.006
   0.02003727  0.00000000  0.00000000       0.024
   0.04007454  0.00000000  0.00000000       0.024
   0.06011181  0.00000000  0.00000000       0.024
   0.08014908  0.00000000  0.00000000       0.024
   0.10018635  0.00000000  0.00000000       0.024
   0.12022362  0.00000000  0.00000000       0.024
   0.02003727  0.02003727  0.00000000       0.024
   0.04007454  0.02003727  0.00000000       0.047
   0.06011181  0.02003727  0.00000000       0.047
   0.08014908  0.02003727  0.00000000       0.047
   0.10018635  0.02003727  0.00000000       0.047
   0.12022362  0.02003727  0.00000000       0.047
   0.04007454  0.04007454  0.00000000       0.024
   0.06011181  0.04007454  0.00000000       0.047
   0.08014908  0.04007454  0.00000000       0.047
   0.10018635  0.04007454  0.00000000       0.047
   0.12022362  0.04007454  0.00000000       0.047
   0.06011181  0.06011181  0.00000000       0.024
   0.08014908  0.06011181  0.00000000       0.047
   0.10018635  0.06011181  0.00000000       0.047
   0.12022362  0.06011181  0.00000000       0.047
   0.08014908  0.08014908  0.00000000       0.024
   0.10018635  0.08014908  0.00000000       0.047
   0.12022362  0.08014908  0.00000000       0.047
   0.10018635  0.10018635  0.00000000       0.024
   0.12022362  0.10018635  0.00000000       0.047
   0.12022362  0.12022362  0.00000000       0.024

 k-points in reciprocal lattice and weights: K-POINTS
   0.00000000  0.00000000  0.00000000       0.006
   0.07692308  0.00000000  0.00000000       0.024
   0.15384615  0.00000000  0.00000000       0.024
   0.23076923  0.00000000  0.00000000       0.024
   0.30769231  0.00000000  0.00000000       0.024
   0.38461538  0.00000000  0.00000000       0.024
   0.46153846  0.00000000  0.00000000       0.024
   0.07692308  0.07692308  0.00000000       0.024
   0.15384615  0.07692308  0.00000000       0.047
   0.23076923  0.07692308  0.00000000       0.047
   0.30769231  0.07692308  0.00000000       0.047
   0.38461538  0.07692308  0.00000000       0.047
   0.46153846  0.07692308  0.00000000       0.047
   0.15384615  0.15384615  0.00000000       0.024
   0.23076923  0.15384615  0.00000000       0.047
   0.30769231  0.15384615  0.00000000       0.047
   0.38461538  0.15384615  0.00000000       0.047
   0.46153846  0.15384615  0.00000000       0.047
   0.23076923  0.23076923  0.00000000       0.024
   0.30769231  0.23076923  0.00000000       0.047
   0.38461538  0.23076923  0.00000000       0.047
   0.46153846  0.23076923  0.00000000       0.047
   0.30769231  0.30769231  0.00000000       0.024
   0.38461538  0.30769231  0.00000000       0.047
   0.46153846  0.30769231  0.00000000       0.047
   0.38461538  0.38461538  0.00000000       0.024
   0.46153846  0.38461538  0.00000000       0.047
   0.46153846  0.46153846  0.00000000       0.024

 position of ions in fractional coordinates (direct lattice)
   0.00000000  0.00000000  0.00000000
   0.00000000  0.50000000  0.50000000
   0.50000000  0.00000000  0.50000000
   0.50000000  0.50000000  0.00000000

 position of ions in cartesian coordinates  (Angst):
   0.00000000  0.00000000  0.00000000
   0.00000000  1.91950000  1.91950000
   1.91950000  0.00000000  1.91950000
   1.91950000  1.91950000  0.00000000

 k-point  1 :   0.0000 0.0000 0.0000  plane waves:    2373
 k-point  2 :   0.0769 0.0000 0.0000  plane waves:    2381
 k-point  3 :   0.1538 0.0000 0.0000  plane waves:    2405
 k-point  4 :   0.2308 0.0000 0.0000  plane waves:    2393
 k-point  5 :   0.3077 0.0000 0.0000  plane waves:    2388
 k-point  6 :   0.3846 0.0000 0.0000  plane waves:    2384
 k-point  7 :   0.4615 0.0000 0.0000  plane waves:    2384
 k-point  8 :   0.0769 0.0769 0.0000  plane waves:    2403
 k-point  9 :   0.1538 0.0769 0.0000  plane waves:    2397
 k-point 10 :   0.2308 0.0769 0.0000  plane waves:    2378
 k-point 11 :   0.3077 0.0769 0.0000  plane waves:    2380
 k-point 12 :   0.3846 0.0769 0.0000  plane waves:    2379
 k-point 13 :   0.4615 0.0769 0.0000  plane waves:    2382
 k-point 14 :   0.1538 0.1538 0.0000  plane waves:    2388
 k-point 15 :   0.2308 0.1538 0.0000  plane waves:    2374
 k-point 16 :   0.3077 0.1538 0.0000  plane waves:    2377
 k-point 17 :   0.3846 0.1538 0.0000  plane waves:    2387
 k-point 18 :   0.4615 0.1538 0.0000  plane waves:    2373
 k-point 19 :   0.2308 0.2308 0.0000  plane waves:    2366
 k-point 20 :   0.3077 0.2308 0.0000  plane waves:    2376
 k-point 21 :   0.3846 0.2308 0.0000  plane waves:    2374
 k-point 22 :   0.4615 0.2308 0.0000  plane waves:    2378
 k-point 23 :   0.3077 0.3077 0.0000  plane waves:    2382
 k-point 24 :   0.3846 0.3077 0.0000  plane waves:    2372
 k-point 25 :   0.4615 0.3077 0.0000  plane waves:    2370
 k-point 26 :   0.3846 0.3846 0.0000  plane waves:    2372
 k-point 27 :   0.4615 0.3846 0.0000  plane waves:    2388
 k-point 28 :   0.4615 0.4615 0.0000  plane waves:    2390

 maximum and minimum number of plane-waves per node :       411      383

 maximum number of plane-waves:      2405
 maximum index in each direction:
   IXMAX=    8   IYMAX=    8   IZMAX=    8
   IXMIN=   -8   IYMIN=   -8   IZMIN=   -8

 WARNING: aliasing errors must be expected set NGX to  34 to avoid them
 WARNING: aliasing errors must be expected set NGY to  34 to avoid them
 WARNING: aliasing errors must be expected set NGZ to  34 to avoid them
 aliasing errors are usually negligible using standard VASP settings
 and one can safely disregard these warnings

 real space projection operators:
  max/ min on nodes  :        529.59        408.09

 parallel 3D FFT for wavefunctions:
    minimum data exchange during FFTs selected (reduces bandwidth)
 parallel 3D FFT for charge:
    minimum data exchange during FFTs selected (reduces bandwidth)

 Broyden mixing: mesh for mixing (old mesh)
   NGX = 17   NGY = 17   NGZ = 17
  (NGX  = 56   NGY  = 56   NGZ  = 56)
  gives a total of   4913 points

 initial charge density was supplied:
 charge density of overlapping atoms calculated
 number of electron      36.0000000 magnetization
 keeping initial charge density in first step

 Maximum index for non-local projection operator          948
 Maximum index for augmentation-charges         2619 (set IRDMAX)

 First call to EWALD:  gamma=   0.462
 Maximum number of real-space cells 3x 3x 3
 Maximum number of reciprocal cells 3x 3x 3

 FEWALD executed in parallel

----------------------------------------- Iteration    1(   1)  ---------------------------------------

 eigenvalue-minimisations  :  1232
 total energy-change (2. order) : 0.4504781E+03  (-0.1969225E+04)
 number of electron      36.0000000 magnetization
 augmentation part       36.0000000 magnetization

 Free energy of the ion-electron system (eV)
  alpha Z        PSCENC =       322.44667008
  Ewald energy   TEWEN  =     -2785.98809030
  -Hartree energ DENC   =      -156.37028835
  -exchange      EXHF   =         0.00000000
  -V(xc)+E(xc)   XCENC  =       -65.64981717
  PAW double counting   =      2205.55844415    -2044.28830016
  entropy T*S    EENTRO =        -0.00045556
  eigenvalues    EBANDS =       734.03885660
  atomic energy  EATOM  =      2240.73108321
  free energy    TOTEN  =       450.47810250 eV

  energy without entropy =      450.47855806  energy(sigma->0) =      450.47825435

[...]

 eigenvalue-minimisations  :  1232
 total energy-change (2. order) :-0.4542420E+03  (-0.4409664E+03)
 number of electron      36.0000000 magnetization
 augmentation part       36.0000000 magnetization

[...]

 Broyden mixing:
  rms(total) = 0.33526E+01    rms(broyden)= 0.33526E+01
  rms(prec ) = 0.38191E+01
  weight for this iteration     100.00

[...]

 eigenvalues of (default mixing * dielectric matrix)
  average eigenvalue GAMMA=   1.8557
  1.8557

[...]

 eigenvalue-minimisations  :  1289
 total energy-change (2. order) :-0.7769163E-04  (-0.1336196E-03)
 number of electron      35.9999991 magnetization
 augmentation part       10.4974689 magnetization

 Broyden mixing:
  rms(total) = 0.97672E-02    rms(broyden)= 0.97672E-02
  rms(prec ) = 0.11527E-01
  weight for this iteration     100.00

 eigenvalues of (default mixing * dielectric matrix)
  average eigenvalue GAMMA=   1.7130
  2.6894  1.8500  1.8500  0.9370  1.2387

[...]

----------------------------------------- Iteration    1(  11)  ---------------------------------------

 eigenvalue-minimisations  :  1026
 total energy-change (2. order) : 0.7328404E-05  (-0.8087157E-05)
 number of electron      35.9999991 magnetization
 augmentation part       10.4974689 magnetization

 Free energy of the ion-electron system (eV)
  alpha Z        PSCENC =       322.44667008
  Ewald energy   TEWEN  =     -2785.98809030
  -Hartree energ DENC   =      -123.15886142
  -exchange      EXHF   =         0.00000000
  -V(xc)+E(xc)   XCENC  =       -66.00756353
  PAW double counting   =      3414.29487409    -3264.58730575
  entropy T*S    EENTRO =        -0.00215316
  eigenvalues    EBANDS =       227.35230636
  atomic energy  EATOM  =      2240.73108321
  free energy    TOTEN  =       -34.91904042 eV

  energy without entropy =      -34.91688726  energy(sigma->0) =      -34.91832270

 average (electrostatic) potential at core
  the test charge radii are     1.2793
  (the norm of the test charge is              1.0000)
       1 -48.5210       2 -48.5210       3 -48.5210       4 -48.5210

 E-fermi :  10.4266     XC(G=0): -13.9636     alpha+bet :-15.7041

 k-point     1 :       0.0000    0.0000    0.0000
  band No.  band energies     occupation
      1      -0.7161      2.00000
      2       2.5363      2.00000
      3       2.5363      2.00000
      4       2.5363      2.00000
      5       3.1350      2.00000
      6       3.1350      2.00000
      7       3.1350      2.00000
      8       6.6162      2.00000
      9       6.6162      2.00000
     10       6.6162      2.00000
     11       9.3300      2.00000
     12       9.3300      2.00000
     13      11.4073     -0.00000
     14      11.4073     -0.00000
     15      11.4077     -0.00000
     16      12.0189     -0.00000
     17      12.0189     -0.00000
     18      12.0189     -0.00000
     19      12.0189     -0.00000
     20      12.1205     -0.00000
     21      12.1205     -0.00000
     22      12.1205     -0.00000

[...]

 k-point    28 :       0.4615    0.4615    0.0000
  band No.  band energies     occupation
      1       3.7284      2.00000
      2       4.1325      2.00000
      3       4.1325      2.00000
      4       4.3253      2.00000
      5       5.4217      2.00000
      6       5.4557      2.00000
      7       5.4557      2.00000
      8       5.6617      2.00000
      9       5.6936      2.00000
     10       5.8371      2.00000
     11       5.8371      2.00000
     12       6.1588      2.00000
     13       8.0196      2.00000
     14       8.1707      2.00000
     15       8.1707      2.00000
     16       8.1798      2.00000
     17       8.8264      2.00000
     18       9.2086      2.00000
     19       9.2086      2.00000
     20       9.4779      2.00000
     21      12.7855     -0.00000
     22      13.3938      0.00000

 soft charge-density along one line, spin component           1
         0         1         2         3         4         5         6         7         8         9
 total charge-density along one line

------------------------ aborting loop because EDIFF is reached ----------------------------------------

 total charge

# of ion     s       p       d       tot
  1        0.680   0.667   7.071   8.417
  2        0.680   0.667   7.071   8.417
  3        0.680   0.667   7.071   8.417
  4        0.680   0.667   7.071   8.417
tot        2.718   2.666  28.284  33.669

  DFT-D2 method for vdW energy calculation

  Parameters of vdW forcefield:
         C6(Jnm^6/mol)     R0(A)
   Ir       6.163          1.698

  IVDW =   1
  VDW_RADIUS =    40.000 A
  VDW_S6 =     0.750
  VDW_SR =     1.000
  VDW_D =    20.000
  LVDW_EWALD = F

  Number of pair interactions contributing to vdW energy:   47592
  Edisp (eV):   -0.62576

  FORCE on cell =-STRESS in cart. coord.  units (eV):
  Direction    XX          YY          ZZ          XY          YZ          ZX
  Alpha Z   322.44667   322.44667   322.44667
  Ewald    -928.66310  -928.66310  -928.66310    -0.00000     0.00000    -0.00000
  Hartree    41.02114    41.02114    41.02114    -0.00000    -0.00000    -0.00000
  E(xc)    -166.19236  -166.19236  -166.19236    -0.00000     0.00000     0.00000
  Local     139.95586   139.95586   139.95586    -0.00000     0.00000    -0.00000
  n-local   -16.59413   -47.03726   -37.77148     8.29584     0.00012     0.00007
  augment   156.41709   156.41709   156.41709    -0.00000    -0.00000     0.00000
  Kinetic   502.59425   463.36006   454.47412     6.87944    -0.00003    -0.00006
  Fock        0.00000     0.00000     0.00000     0.00000     0.00000     0.00000
  vdW        -0.89711    -0.89711    -0.89711     0.00000     0.00000    -0.00000
  Total       3.76337     3.76337     3.76337     0.00000    -0.00000     0.00000
  in kB     106.56961   106.56961   106.56961     0.00000    -0.00000     0.00000

 VOLUME and BASIS-vectors are now :
  energy-cutoff  :      700.00
  volume of cell :       56.58
      direct lattice vectors                 reciprocal lattice vectors
     3.839000000  0.000000000  0.000000000     0.260484501  0.000000000  0.000000000
     0.000000000  3.839000000  0.000000000     0.000000000  0.260484501  0.000000000
     0.000000000  0.000000000  3.839000000     0.000000000  0.000000000  0.260484501

  length of vectors
     3.839000000  3.839000000  3.839000000     0.260484501  0.260484501  0.260484501

 FORCES acting on ions
    electron-ion (+dipol)            ewald-force                    non-local-force                 convergence-correction
   -.610E-14 -.977E-14 -.351E-13   -.707E-14 -.101E-13 -.937E-14   0.000E+00 0.132E-22 -.424E-21   -.163E-13 0.536E-14 0.172E-13
   -.555E-14 0.984E-13 0.750E-13   -.773E-14 0.689E-14 0.359E-14   -.132E-22 0.212E-21 0.000E+00   -.160E-13 -.946E-14 -.237E-13
   0.106E-12 -.877E-14 0.165E-11   0.705E-14 -.876E-14 0.373E-14   0.397E-22 0.265E-21 0.000E+00   0.113E-13 0.587E-14 -.285E-13
   0.106E-12 0.825E-12 0.571E-12   0.640E-14 0.821E-14 0.333E-14   0.529E-22 0.529E-22 0.000E+00   0.101E-13 -.134E-13 0.180E-13
   0.201E-12 0.905E-12 0.226E-11   -.134E-14 -.374E-14 0.128E-14   0.794E-22 0.543E-21 -.424E-21   -.108E-13 -.117E-13 -.170E-13

 POSITION                                       TOTAL-FORCE (eV/Angst)
      0.00000      0.00000      0.00000        -0.000000      0.000000      0.000000
      0.00000      1.91950      1.91950         0.000000      0.000000     -0.000000
      1.91950      0.00000      1.91950        -0.000000     -0.000000     -0.000000
      1.91950      1.91950      0.00000         0.000000     -0.000000      0.000000
    total drift:                                0.000000      0.000000      0.000000

  FREE ENERGIE OF THE ION-ELECTRON SYSTEM (eV)
  free  energy   TOTEN  =       -35.54479632 eV

  energy  without entropy=      -35.54264316  energy(sigma->0) =      -35.54407860

 writing wavefunctions

 total charge

# of ion     s       p       d       tot
  1        0.680   0.667   7.071   8.417
  2        0.680   0.667   7.071   8.417
  3        0.680   0.667   7.071   8.417
  4        0.680   0.667   7.071   8.417
tot        2.718   2.666  28.284  33.669