 vasp.5.3.5 31Mar14 (build Apr 25 2014 16:28:52) complex

 executed on             LinuxIFC date 2019.02.08  10:54:30

 INCAR:
 POTCAR:    PAW_PBE Cu 22Jun2005
 POTCAR:    PAW_PBE Cu 22Jun2005

 Optimization of the real space projectors (new method)

 maximal supplied QI-value         = 16.25
 optimisation between [QCUT,QGAM] = [ 13.49, 26.98] = [ 50.95,203.80] Ry
 Optimized for a Real-space Cutoff    1.36 Angstroem

   l    n(q)    QCUT    max X(q) W(low)/X(q) W(high)/X(q)  e(spline)
   2     10    13.489     4.610    0.20E-03    0.14E-03    0.23E-06
   2     10    13.489     8.522    0.31E-03    0.22E-03    0.40E-06
   0     11    13.489    51.609    0.56E-04    0.35E-04    0.18E-06
   0     11    13.489    27.747    0.50E-04    0.33E-04    0.17E-06
   1     11    13.489    20.408    0.21E-04    0.71E-04    0.40E-06
   1     11    13.489    13.425    0.19E-04    0.62E-04    0.35E-06
  PAW_PBE Cu 22Jun2005                  :

 POSCAR: Cu
  positions in direct lattice
  velocities in cartesian coordinates
 exchange correlation table for  LEXCH =        8
   RHO(1)=    0.500       N(1)  =     2000
   RHO(2)=  100.500       N(2)  =     4000

 ion  position               nearest neighbor table
   1  0.000  0.000  0.000-   2 2.56   3 2.56   4 2.56   2 2.56   3 2.56   2 2.56   4 2.56   2 2.56
                             3 2.56   4 2.56   3 2.56   4 2.56
   2  0.000  0.500  0.500-   1 2.56   3 2.56   4 2.56   1 2.56   4 2.56   1 2.56   3 2.56   1 2.56
                             3 2.56   4 2.56   4 2.56   3 2.56
   3  0.500  0.000  0.500-   1 2.56   2 2.56   4 2.56   1 2.56   4 2.56   2 2.56   4 2.56   4 2.56
                             1 2.56   2 2.56   1 2.56   2 2.56
   4  0.500  0.500  0.000-   1 2.56   2 2.56   3 2.56   2 2.56   3 2.56   1 2.56   3 2.56   3 2.56
                             1 2.56   2 2.56   2 2.56   1 2.56

  LATTYP: Found a simple cubic cell.
 ALAT       =     3.6216990795

  Lattice vectors:

 A1 = (   3.6216990795,   0.0000000000,   0.0000000000)
 A2 = (   0.0000000000,   3.6216990795,   0.0000000000)
 A3 = (   0.0000000000,   0.0000000000,   3.6216990795)

Analysis of symmetry for initial positions (statically):
 Subroutine PRICEL returns following result:

  LATTYP: Found a face centered cubic cell.
 ALAT       =     3.6216990795

[...]

   4 primitive cells build up your supercell.

 Routine SETGRP: Setting up the symmetry group for a
 simple cubic supercell.

 Subroutine GETGRP returns: Found 48 space group operations
 (whereof 48 operations were pure point group operations)
 out of a pool of 48 trial point group operations.

The static configuration has the point symmetry O_h .

Analysis of symmetry for dynamics (positions and initial velocities):
 Subroutine PRICEL returns following result:

  LATTYP: Found a face centered cubic cell.
 ALAT       =     3.6216990795

  Lattice vectors:

 A1 = (   1.8108495398,   1.8108495398,  -0.0000000000)
 A2 = (   1.8108495398,   0.0000000000,  -1.8108495398)
 A3 = (   0.0000000000,   1.8108495398,  -1.8108495398)

   4 primitive cells build up your supercell.

 Routine SETGRP: Setting up the symmetry group for a
 simple cubic supercell.

 Subroutine GETGRP returns: Found 48 space group operations
 (whereof 48 operations were pure point group operations)
 out of a pool of 48 trial point group operations.

The dynamic configuration has the point symmetry O_h .

 KPOINTS: E

Automatic generation of k-mesh.
Space group operators:
 irot       det(A)        alpha          n_x          n_y          n_z        tau_x        tau_y        tau_z
    1     1.000000     0.000000     1.000000     0.000000     0.000000     0.000000     0.000000     0.000000
    2    -1.000000     0.000000     1.000000     0.000000     0.000000     0.000000     0.000000     0.000000
    3     1.000000   120.000000    -0.577350    -0.577350    -0.577350     0.000000     0.000000     0.000000
    4    -1.000000   120.000000    -0.577350    -0.577350    -0.577350     0.000000     0.000000     0.000000
    5     1.000000   120.000000     0.577350     0.577350     0.577350     0.000000     0.000000     0.000000
    6    -1.000000   120.000000     0.577350     0.577350     0.577350     0.000000     0.000000     0.000000
    7     1.000000    90.000000     0.000000     0.000000    -1.000000     0.000000     0.000000     0.000000
    8    -1.000000    90.000000     0.000000     0.000000    -1.000000     0.000000     0.000000     0.000000
    9     1.000000   180.000000     0.000000     0.707107     0.707107     0.000000     0.000000     0.000000
   10    -1.000000   180.000000     0.000000     0.707107     0.707107     0.000000     0.000000     0.000000
   11     1.000000    90.000000     0.000000     1.000000     0.000000     0.000000     0.000000     0.000000
   12    -1.000000    90.000000     0.000000     1.000000     0.000000     0.000000     0.000000     0.000000
   13     1.000000   180.000000     0.000000     0.000000     1.000000     0.000000     0.000000     0.000000
   14    -1.000000   180.000000     0.000000     0.000000     1.000000     0.000000     0.000000     0.000000
   15     1.000000   120.000000    -0.577350     0.577350     0.577350     0.000000     0.000000     0.000000
   16    -1.000000   120.000000    -0.577350     0.577350     0.577350     0.000000     0.000000     0.000000
   17     1.000000   120.000000    -0.577350     0.577350    -0.577350     0.000000     0.000000     0.000000
   18    -1.000000   120.000000    -0.577350     0.577350    -0.577350     0.000000     0.000000     0.000000
   19     1.000000    90.000000     0.000000     0.000000     1.000000     0.000000     0.000000     0.000000
   20    -1.000000    90.000000     0.000000     0.000000     1.000000     0.000000     0.000000     0.000000
   21     1.000000    90.000000    -1.000000     0.000000     0.000000     0.000000     0.000000     0.000000
   22    -1.000000    90.000000    -1.000000     0.000000     0.000000     0.000000     0.000000     0.000000
   23     1.000000   180.000000     0.707107     0.000000     0.707107     0.000000     0.000000     0.000000
   24    -1.000000   180.000000     0.707107     0.000000     0.707107     0.000000     0.000000     0.000000
   25     1.000000   120.000000     0.577350    -0.577350     0.577350     0.000000     0.000000     0.000000
   26    -1.000000   120.000000     0.577350    -0.577350     0.577350     0.000000     0.000000     0.000000
   27     1.000000   120.000000    -0.577350    -0.577350     0.577350     0.000000     0.000000     0.000000
   28    -1.000000   120.000000    -0.577350    -0.577350     0.577350     0.000000     0.000000     0.000000
   29     1.000000   180.000000     1.000000     0.000000     0.000000     0.000000     0.000000     0.000000
   30    -1.000000   180.000000     1.000000     0.000000     0.000000     0.000000     0.000000     0.000000
   31     1.000000    90.000000     0.000000    -1.000000     0.000000     0.000000     0.000000     0.000000
   32    -1.000000    90.000000     0.000000    -1.000000     0.000000     0.000000     0.000000     0.000000
   33     1.000000   180.000000     0.707107     0.707107     0.000000     0.000000     0.000000     0.000000
   34    -1.000000   180.000000     0.707107     0.707107     0.000000     0.000000     0.000000     0.000000
   35     1.000000    90.000000     1.000000     0.000000     0.000000     0.000000     0.000000     0.000000
   36    -1.000000    90.000000     1.000000     0.000000     0.000000     0.000000     0.000000     0.000000
   37     1.000000   120.000000     0.577350    -0.577350    -0.577350     0.000000     0.000000     0.000000
   38    -1.000000   120.000000     0.577350    -0.577350    -0.577350     0.000000     0.000000     0.000000
   39     1.000000   180.000000     0.000000     1.000000     0.000000     0.000000     0.000000     0.000000
   40    -1.000000   180.000000     0.000000     1.000000     0.000000     0.000000     0.000000     0.000000
   41     1.000000   120.000000     0.577350     0.577350    -0.577350     0.000000     0.000000     0.000000
   42    -1.000000   120.000000     0.577350     0.577350    -0.577350     0.000000     0.000000     0.000000
   43     1.000000   180.000000     0.000000    -0.707107     0.707107     0.000000     0.000000     0.000000
   44    -1.000000   180.000000     0.000000    -0.707107     0.707107     0.000000     0.000000     0.000000
   45     1.000000   180.000000     0.707107    -0.707107     0.000000     0.000000     0.000000     0.000000
   46    -1.000000   180.000000     0.707107    -0.707107     0.000000     0.000000     0.000000     0.000000
   47     1.000000   180.000000     0.707107     0.000000    -0.707107     0.000000     0.000000     0.000000
   48    -1.000000   180.000000     0.707107     0.000000    -0.707107     0.000000     0.000000     0.000000

 Subroutine IBZKPT returns following result:

 Found     84 irreducible k-points:

 Following reciprocal coordinates:
            Coordinates               Weight
  0.000000  0.000000  0.000000      1.000000
  0.076923  0.000000  0.000000      6.000000
  0.153846  0.000000  0.000000      6.000000
  0.230769  0.000000  0.000000      6.000000
  0.307692  0.000000  0.000000      6.000000
  0.384615  0.000000  0.000000      6.000000
  0.461538  0.000000  0.000000      6.000000
  0.076923  0.076923  0.000000     12.000000
  0.153846  0.076923  0.000000     24.000000
  0.230769  0.076923  0.000000     24.000000
  0.307692  0.076923  0.000000     24.000000
  0.384615  0.076923  0.000000     24.000000
  0.461538  0.076923  0.000000     24.000000
  0.153846  0.153846  0.000000     12.000000
  0.230769  0.153846  0.000000     24.000000
  0.307692  0.153846  0.000000     24.000000
  0.384615  0.153846  0.000000     24.000000
  0.461538  0.153846  0.000000     24.000000
  0.230769  0.230769  0.000000     12.000000
  0.307692  0.230769  0.000000     24.000000
  0.384615  0.230769  0.000000     24.000000
  0.461538  0.230769  0.000000     24.000000
  0.307692  0.307692  0.000000     12.000000
  0.384615  0.307692  0.000000     24.000000
  0.461538  0.307692  0.000000     24.000000
  0.384615  0.384615  0.000000     12.000000
  0.461538  0.384615  0.000000     24.000000
  0.461538  0.461538  0.000000     12.000000
  0.076923  0.076923  0.076923      8.000000
  0.153846  0.076923  0.076923     24.000000
  0.230769  0.076923  0.076923     24.000000
  0.307692  0.076923  0.076923     24.000000
  0.384615  0.076923  0.076923     24.000000
  0.461538  0.076923  0.076923     24.000000
  0.153846  0.153846  0.076923     24.000000
  0.230769  0.153846  0.076923     48.000000
  0.307692  0.153846  0.076923     48.000000
  0.384615  0.153846  0.076923     48.000000
  0.461538  0.153846  0.076923     48.000000
  0.230769  0.230769  0.076923     24.000000
  0.307692  0.230769  0.076923     48.000000
  0.384615  0.230769  0.076923     48.000000
  0.461538  0.230769  0.076923     48.000000
  0.307692  0.307692  0.076923     24.000000
  0.384615  0.307692  0.076923     48.000000
  0.461538  0.307692  0.076923     48.000000
  0.384615  0.384615  0.076923     24.000000
  0.461538  0.384615  0.076923     48.000000
[...]
   0.38461538  0.15384615  0.15384615       0.011
   0.46153846  0.15384615  0.15384615       0.011
   0.23076923  0.23076923  0.15384615       0.011
   0.30769231  0.23076923  0.15384615       0.022
   0.38461538  0.23076923  0.15384615       0.022
   0.46153846  0.23076923  0.15384615       0.022
   0.30769231  0.30769231  0.15384615       0.011
   0.38461538  0.30769231  0.15384615       0.022
[...]
   0.38461538  0.30769231  0.23076923       0.022
   0.46153846  0.30769231  0.23076923       0.022
   0.38461538  0.38461538  0.23076923       0.011
   0.46153846  0.38461538  0.23076923       0.022
   0.46153846  0.46153846  0.23076923       0.011
   0.30769231  0.30769231  0.30769231       0.004
   0.38461538  0.30769231  0.30769231       0.011
   0.46153846  0.30769231  0.30769231       0.011
   0.38461538  0.38461538  0.30769231       0.011
   0.46153846  0.38461538  0.30769231       0.022
   0.46153846  0.46153846  0.30769231       0.011
   0.38461538  0.38461538  0.38461538       0.004
   0.46153846  0.38461538  0.38461538       0.011
   0.46153846  0.46153846  0.38461538       0.011
   0.46153846  0.46153846  0.46153846       0.004

 position of ions in fractional coordinates (direct lattice)
   0.00000000  0.00000000  0.00000000
   0.00000000  0.50000000  0.50000000
   0.50000000  0.00000000  0.50000000
   0.50000000  0.50000000  0.00000000

 position of ions in cartesian coordinates  (Angst):
   0.00000000  0.00000000  0.00000000
   0.00000000  1.81084954  1.81084954
   1.81084954  0.00000000  1.81084954
   1.81084954  1.81084954  0.00000000

 k-point  1 :   0.0000 0.0000 0.0000  plane waves:    2007
 k-point  2 :   0.0769 0.0000 0.0000  plane waves:    1983
 k-point  3 :   0.1538 0.0000 0.0000  plane waves:    1991
 k-point  4 :   0.2308 0.0000 0.0000  plane waves:    1980
 k-point  5 :   0.3077 0.0000 0.0000  plane waves:    1992
 k-point  6 :   0.3846 0.0000 0.0000  plane waves:    2000
 k-point  7 :   0.4615 0.0000 0.0000  plane waves:    2004
 k-point  8 :   0.0769 0.0769 0.0000  plane waves:    1987
 k-point  9 :   0.1538 0.0769 0.0000  plane waves:    2001
 k-point 10 :   0.2308 0.0769 0.0000  plane waves:    1991
 k-point 11 :   0.3077 0.0769 0.0000  plane waves:    1991
 k-point 12 :   0.3846 0.0769 0.0000  plane waves:    2002
 k-point 13 :   0.4615 0.0769 0.0000  plane waves:    2005
 k-point 14 :   0.1538 0.1538 0.0000  plane waves:    1995
 k-point 15 :   0.2308 0.1538 0.0000  plane waves:    1993
 k-point 16 :   0.3077 0.1538 0.0000  plane waves:    1995
 k-point 17 :   0.3846 0.1538 0.0000  plane waves:    1994
 k-point 18 :   0.4615 0.1538 0.0000  plane waves:    1999
 k-point 19 :   0.2308 0.2308 0.0000  plane waves:    1993
 k-point 20 :   0.3077 0.2308 0.0000  plane waves:    1991
 k-point 21 :   0.3846 0.2308 0.0000  plane waves:    1999
 k-point 22 :   0.4615 0.2308 0.0000  plane waves:    2003
 k-point 23 :   0.3077 0.3077 0.0000  plane waves:    2007
 k-point 24 :   0.3846 0.3077 0.0000  plane waves:    2003
 k-point 25 :   0.4615 0.3077 0.0000  plane waves:    2008
 k-point 26 :   0.3846 0.3846 0.0000  plane waves:    2009
 k-point 27 :   0.4615 0.3846 0.0000  plane waves:    2000
 k-point 28 :   0.4615 0.4615 0.0000  plane waves:    1997
 k-point 29 :   0.0769 0.0769 0.0769  plane waves:    1995
 k-point 30 :   0.1538 0.0769 0.0769  plane waves:    1992
 k-point 31 :   0.2308 0.0769 0.0769  plane waves:    1985
 k-point 32 :   0.3077 0.0769 0.0769  plane waves:    1996
 k-point 33 :   0.3846 0.0769 0.0769  plane waves:    1997
 k-point 34 :   0.4615 0.0769 0.0769  plane waves:    1998
 k-point 35 :   0.1538 0.1538 0.0769  plane waves:    1985
 k-point 36 :   0.2308 0.1538 0.0769  plane waves:    1985
 k-point 37 :   0.3077 0.1538 0.0769  plane waves:    1991
 k-point 38 :   0.3846 0.1538 0.0769  plane waves:    2001
 k-point 39 :   0.4615 0.1538 0.0769  plane waves:    2000
 k-point 40 :   0.2308 0.2308 0.0769  plane waves:    1995
 k-point 41 :   0.3077 0.2308 0.0769  plane waves:    1997
 k-point 42 :   0.3846 0.2308 0.0769  plane waves:    1998
 k-point 43 :   0.4615 0.2308 0.0769  plane waves:    2001
 k-point 44 :   0.3077 0.3077 0.0769  plane waves:    2001
 k-point 45 :   0.3846 0.3077 0.0769  plane waves:    2002
 k-point 46 :   0.4615 0.3077 0.0769  plane waves:    2005
 k-point 47 :   0.3846 0.3846 0.0769  plane waves:    1996
 k-point 48 :   0.4615 0.3846 0.0769  plane waves:    2008
 k-point 49 :   0.4615 0.4615 0.0769  plane waves:    2008
 k-point 50 :   0.1538 0.1538 0.1538  plane waves:    1974
 k-point 51 :   0.2308 0.1538 0.1538  plane waves:    1985
 k-point 52 :   0.3077 0.1538 0.1538  plane waves:    1992
 k-point 53 :   0.3846 0.1538 0.1538  plane waves:    1994
 k-point 54 :   0.4615 0.1538 0.1538  plane waves:    1998
 k-point 55 :   0.2308 0.2308 0.1538  plane waves:    1986
 k-point 56 :   0.3077 0.2308 0.1538  plane waves:    1991
 k-point 57 :   0.3846 0.2308 0.1538  plane waves:    1995
 k-point 58 :   0.4615 0.2308 0.1538  plane waves:    2003
 k-point 59 :   0.3077 0.3077 0.1538  plane waves:    2000
 k-point 60 :   0.3846 0.3077 0.1538  plane waves:    2007
[...]
 k-point 70 :   0.3846 0.3077 0.2308  plane waves:    2000
 k-point 71 :   0.4615 0.3077 0.2308  plane waves:    1995
 k-point 72 :   0.3846 0.3846 0.2308  plane waves:    2004
 k-point 73 :   0.4615 0.3846 0.2308  plane waves:    2013
 k-point 74 :   0.4615 0.4615 0.2308  plane waves:    2014
 k-point 75 :   0.3077 0.3077 0.3077  plane waves:    1986
 k-point 76 :   0.3846 0.3077 0.3077  plane waves:    2004
 k-point 77 :   0.4615 0.3077 0.3077  plane waves:    2002
 k-point 78 :   0.3846 0.3846 0.3077  plane waves:    1996
 k-point 79 :   0.4615 0.3846 0.3077  plane waves:    1987
 k-point 80 :   0.4615 0.4615 0.3077  plane waves:    1994
 k-point 81 :   0.3846 0.3846 0.3846  plane waves:    2004
 k-point 82 :   0.4615 0.3846 0.3846  plane waves:    1985
 k-point 83 :   0.4615 0.4615 0.3846  plane waves:    1978
 k-point 84 :   0.4615 0.4615 0.4615  plane waves:    1968

 maximum and minimum number of plane-waves per node :       348      317

 maximum number of plane-waves:      2014
 maximum index in each direction:
   IXMAX=    7   IYMAX=    7   IZMAX=    7
   IXMIN=   -8   IYMIN=   -8   IZMIN=   -8

 WARNING: aliasing errors must be expected set NGX to  32 to avoid them
 WARNING: aliasing errors must be expected set NGY to  32 to avoid them
 WARNING: aliasing errors must be expected set NGZ to  32 to avoid them
 aliasing errors are usually negligible using standard VASP settings
 and one can safely disregard these warnings

 real space projection operators:
  max/ min on nodes  :        289.69        248.62

 parallel 3D FFT for wavefunctions:
    minimum data exchange during FFTs selected (reduces bandwidth)
 parallel 3D FFT for charge:
    minimum data exchange during FFTs selected (reduces bandwidth)

 Broyden mixing: mesh for mixing (old mesh)
   NGX = 15   NGY = 15   NGZ = 15
  (NGX  = 48   NGY  = 48   NGZ  = 48)
  gives a total of   3375 points

 initial charge density was supplied:
 charge density of overlapping atoms calculated
 number of electron      44.0000000 magnetization
 keeping initial charge density in first step

 Maximum index for non-local projection operator          515
 Maximum index for augmentation-charges          563 (set IRDMAX)

 First call to EWALD:  gamma=   0.489
 Maximum number of real-space cells 3x 3x 3
 Maximum number of reciprocal cells 3x 3x 3

 FEWALD executed in parallel

----------------------------------------- Iteration    1(   1)  ---------------------------------------

 eigenvalue-minimisations  :  4512
 total energy-change (2. order) : 0.3617022E+03  (-0.2469100E+04)
 number of electron      44.0000000 magnetization
 augmentation part       44.0000000 magnetization

 Free energy of the ion-electron system (eV)
  alpha Z        PSCENC =       246.31741479
  Ewald energy   TEWEN  =     -4411.49058174
  -Hartree energ DENC   =     -1451.99225135
  -exchange      EXHF   =         0.00000000
  -V(xc)+E(xc)   XCENC  =       183.07853945
  PAW double counting   =      4912.82663951    -5336.19386850
  entropy T*S    EENTRO =         0.00066086
  eigenvalues    EBANDS =       655.23828034
  atomic energy  EATOM  =      5563.91739438
  free energy    TOTEN  =       361.70222774 eV

  energy without entropy =      361.70156688  energy(sigma->0) =      361.70200745

[...]

 eigenvalue-minimisations  :  4368
 total energy-change (2. order) :-0.3494367E+03  (-0.3435249E+03)
 number of electron      44.0000000 magnetization
 augmentation part       44.0000000 magnetization

[...]

 Broyden mixing:
  rms(total) = 0.15343E+01    rms(broyden)= 0.15343E+01
  rms(prec ) = 0.35981E+01
  weight for this iteration     100.00

[...]

 eigenvalues of (default mixing * dielectric matrix)
  average eigenvalue GAMMA=   0.6599
  0.6599

[...]

 eigenvalue-minimisations  :  3727
 total energy-change (2. order) : 0.2324230E-04  (-0.9281364E-05)
 number of electron      43.9999908 magnetization
 augmentation part       28.0458239 magnetization

 Broyden mixing:
  rms(total) = 0.57003E-03    rms(broyden)= 0.56999E-03
  rms(prec ) = 0.12508E-02
  weight for this iteration     100.00

 eigenvalues of (default mixing * dielectric matrix)
  average eigenvalue GAMMA=   1.5055
  2.6559  2.2860  0.6416  0.9426  1.0012  1.5056

[...]

----------------------------------------- Iteration    1(  12)  ---------------------------------------

 eigenvalue-minimisations  :  2393
 total energy-change (2. order) :-0.6726797E-05  (-0.7041113E-06)
 number of electron      43.9999908 magnetization
 augmentation part       28.0458239 magnetization

 Free energy of the ion-electron system (eV)
  alpha Z        PSCENC =       246.31741479
  Ewald energy   TEWEN  =     -4411.49058174
  -Hartree energ DENC   =     -1358.90612619
  -exchange      EXHF   =         0.00000000
  -V(xc)+E(xc)   XCENC  =       178.65705383
  PAW double counting   =      5260.60896083    -5692.03099668
  entropy T*S    EENTRO =        -0.00031690
  eigenvalues    EBANDS =       198.01636388
  atomic energy  EATOM  =      5563.91739438
  free energy    TOTEN  =       -14.91083379 eV

  energy without entropy =      -14.91051689  energy(sigma->0) =      -14.91072816

 average (electrostatic) potential at core
  the test charge radii are     0.9430
  (the norm of the test charge is              1.0000)
       1 -63.7521       2 -63.7521       3 -63.7521       4 -63.7521

 E-fermi :   7.5373     XC(G=0): -12.6930     alpha+bet :-13.3497

 k-point     1 :       0.0000    0.0000    0.0000
  band No.  band energies     occupation
      1      -1.7922      2.00000
      2       2.6743      2.00000
      3       2.6743      2.00000
      4       2.6743      2.00000
      5       3.1268      2.00000
      6       3.1268      2.00000
      7       3.1268      2.00000
      8       4.5081      2.00000
      9       4.5081      2.00000
     10       4.5081      2.00000
     11       5.3285      2.00000
     12       5.3285      2.00000
     13       5.8740      2.00000
     14       5.8740      2.00000
     15       5.8740      2.00000
     16       6.0283      2.00000
     17       6.0283      2.00000
     18       6.0283      2.00000
     19       6.0283      2.00000
     20       6.0283      2.00000
     21       6.0283      2.00000
     22       9.0196     -0.00000
     23       9.0196     -0.00000
     24       9.0196     -0.00000
     25      14.5921      0.00000
     26      14.5920      0.00000

[...]

 k-point    84 :       0.4615    0.4615    0.4615
  band No.  band energies     occupation
      1       2.4418      2.00000
      2       2.4988      2.00000
      3       2.4988      2.00000
      4       2.4988      2.00000
      5       4.4600      2.00000
      6       4.4600      2.00000
      7       4.4600      2.00000
      8       4.4852      2.00000
      9       4.4852      2.00000
     10       4.4962      2.00000
     11       4.4962      2.00000
     12       4.4962      2.00000
     13       5.6586      2.00000
     14       5.6586      2.00000
     15       5.6586      2.00000
     16       5.8725      2.00000
     17       5.8725      2.00000
     18       5.8900      2.00000
     19       5.8900      2.00000
     20       5.8900      2.00000
     21       6.2592      2.00000
     22       6.7707      2.00000
     23       6.7707      2.00000
     24       6.7707      2.00000
     25      11.3068      0.00000
     26      11.3068      0.00000

 soft charge-density along one line, spin component           1
         0         1         2         3         4         5         6         7         8         9
 total charge-density along one line

------------------------ aborting loop because EDIFF is reached ----------------------------------------

 total charge

# of ion     s       p       d       tot
  1        0.446   0.377   9.174   9.997
  2        0.446   0.377   9.174   9.997
  3        0.446   0.377   9.174   9.997
  4        0.446   0.377   9.174   9.997
tot        1.784   1.509  36.694  39.987

  DFT-D2 method for vdW energy calculation

  Parameters of vdW forcefield:
         C6(Jnm^6/mol)     R0(A)
   Cu       2.740          1.562

  IVDW =   1
  VDW_RADIUS =    40.000 A
  VDW_S6 =     0.750
  VDW_SR =     1.000
  VDW_D =    20.000
  LVDW_EWALD = F

  Number of pair interactions contributing to vdW energy:   56232
  Edisp (eV):   -0.41378

  FORCE on cell =-STRESS in cart. coord.  units (eV):
  Direction    XX          YY          ZZ          XY          YZ          ZX
  Alpha Z   246.31741   246.31741   246.31741
  Ewald   -1470.49751 -1470.49751 -1470.49751     0.00000    -0.00000    -0.00000
  Hartree   452.95841   452.95841   452.95841    -0.00000    -0.00000    -0.00000
  E(xc)    -257.33056  -257.33056  -257.33056     0.00000    -0.00000     0.00000
  Local     374.73184   374.73184   374.73184    -0.00000    -0.00000     0.00000
  n-local   -78.00006   -86.88967   -88.19230     0.48178     2.75272     0.99420
  augment   379.32776   379.32776   379.32776    -0.00000    -0.00000     0.00000
  Kinetic   366.85097   358.23740   352.59234    -3.31522     0.02659    -1.36292
  Fock        0.00000     0.00000     0.00000     0.00000     0.00000     0.00000
  vdW        -0.53868    -0.53868    -0.53868    -0.00000    -0.00000     0.00000
  Total      -0.16509    -0.16509    -0.16509     0.00000     0.00000    -0.00000
  in kB      -5.56787    -5.56787    -5.56787     0.00000     0.00000    -0.00000

 VOLUME and BASIS-vectors are now :
  energy-cutoff  :      700.00
  volume of cell :       47.50
      direct lattice vectors                 reciprocal lattice vectors
     3.621699080  0.000000000  0.000000000     0.276113498  0.000000000  0.000000000
     0.000000000  3.621699080  0.000000000     0.000000000  0.276113498  0.000000000
     0.000000000  0.000000000  3.621699080     0.000000000  0.000000000  0.276113498

  length of vectors
     3.621699080  3.621699080  3.621699080     0.276113498  0.276113498  0.276113498

 FORCES acting on ions
    electron-ion (+dipol)            ewald-force                    non-local-force                 convergence-correction
   0.662E-13 0.609E-13 -.379E-12   -.749E-14 -.543E-14 0.756E-14   -.265E-22 0.438E-22 -.596E-22   -.896E-13 -.162E-12 -.309E-13
   0.676E-13 0.763E-12 0.337E-12   -.847E-14 0.520E-14 0.508E-14   -.331E-22 0.265E-22 0.149E-22   -.843E-13 -.103E-12 0.399E-13
   0.779E-12 0.607E-13 -.549E-11   0.867E-14 -.519E-14 0.502E-14   -.321E-22 -.265E-22 0.000E+00   -.465E-13 -.151E-12 0.253E-13
   0.776E-12 -.320E-11 -.511E-11   0.769E-14 0.544E-14 -.199E-13   -.265E-22 -.397E-22 0.182E-22   -.509E-13 -.647E-13 0.801E-13
   0.169E-11 -.232E-11 -.106E-10   0.401E-15 0.146E-16 -.224E-14   -.118E-21 0.414E-23 -.265E-22   -.271E-12 -.480E-12 0.114E-12

 POSITION                                       TOTAL-FORCE (eV/Angst)
      0.00000      0.00000      0.00000        -0.000000     -0.000000      0.000000
      0.00000      1.81085      1.81085        -0.000000     -0.000000     -0.000000
      1.81085      0.00000      1.81085         0.000000     -0.000000      0.000000
      1.81085      1.81085      0.00000         0.000000      0.000000      0.000000
    total drift:                                0.000000     -0.000000     -0.000000

  FREE ENERGIE OF THE ION-ELECTRON SYSTEM (eV)
  free  energy   TOTEN  =       -15.32460925 eV

  energy  without entropy=      -15.32429235  energy(sigma->0) =      -15.32450362

 writing wavefunctions

 total charge

# of ion     s       p       d       tot
  1        0.446   0.377   9.174   9.997
  2        0.446   0.377   9.174   9.997
  3        0.446   0.377   9.174   9.997
  4        0.446   0.377   9.174   9.997
tot        1.784   1.509  36.694  39.987