 vasp.5.3.5 31Mar14 (build Apr 25 2014 16:28:52) complex

 executed on             LinuxIFC date 2019.02.22  15:39:24

 INCAR:
 POTCAR:    PAW_PBE Fe 06Sep2000

 POTCAR:    PAW_PBE Fe 06Sep2000

 Optimization of the real space projectors (new method)

 maximal supplied QI-value         = 16.25
 optimisation between [QCUT,QGAM] = [ 13.49, 26.98] = [ 50.95,203.80] Ry
 Optimized for a Real-space Cutoff    1.32 Angstroem

   l    n(q)    QCUT    max X(q) W(low)/X(q) W(high)/X(q)  e(spline)
   2     10    13.489    80.901    0.41E-03    0.56E-03    0.31E-06
   2     10    13.489    75.754    0.41E-03    0.56E-03    0.31E-06
   0     11    13.489    58.752    0.81E-04    0.64E-05    0.65E-06
   0     11    13.489    30.679    0.74E-04    0.59E-05    0.59E-06
   1     10    13.489    17.977    0.12E-03    0.14E-03    0.21E-06
   1     10    13.489    13.559    0.94E-04    0.12E-03    0.18E-06
  PAW_PBE Fe 06Sep2000                  :

 POSCAR: Fe
  positions in cartesian coordinates
 exchange correlation table for  LEXCH =        8
   RHO(1)=    0.500       N(1)  =     2000
   RHO(2)=  100.500       N(2)  =     4000

 ion  position               nearest neighbor table
   1  0.000  0.000  0.000-   2 2.48   2 2.48   2 2.48   2 2.48   2 2.48   2 2.48   2 2.48   2 2.48

   2  0.500  0.500  0.500-   1 2.48   1 2.48   1 2.48   1 2.48   1 2.48   1 2.48   1 2.48   1 2.48

  LATTYP: Found a simple cubic cell.
 ALAT       =     2.8664000034

  Lattice vectors:

 A1 = (   2.8664000034,   0.0000000000,   0.0000000000)
 A2 = (   0.0000000000,   2.8664000034,   0.0000000000)
 A3 = (   0.0000000000,   0.0000000000,   2.8664000034)

Analysis of symmetry for initial positions (statically):
 Subroutine PRICEL returns following result:

  LATTYP: Found a body centered cubic cell.
 ALAT       =     2.8664000034

[...]

   2 primitive cells build up your supercell.

 Routine SETGRP: Setting up the symmetry group for a
 simple cubic supercell.

 Subroutine GETGRP returns: Found 48 space group operations
 (whereof 48 operations were pure point group operations)
 out of a pool of 48 trial point group operations.

The static configuration has the point symmetry O_h .

Analysis of symmetry for dynamics (positions and initial velocities):
 Subroutine PRICEL returns following result:

[...]

 Routine SETGRP: Setting up the symmetry group for a
 simple cubic supercell.

 Subroutine GETGRP returns: Found 48 space group operations
 (whereof 48 operations were pure point group operations)
 out of a pool of 48 trial point group operations.

The dynamic configuration has the point symmetry O_h .

Analysis of magnetic symmetry:
 Subroutine PRICEL returns following result:

  LATTYP: Found a body centered cubic cell.
 ALAT       =     2.8664000034

  Lattice vectors:

 A1 = (   1.4332000017,   1.4332000017,   1.4332000017)
 A2 = (   1.4332000017,  -1.4332000017,  -1.4332000017)
 A3 = (  -1.4332000017,   1.4332000017,  -1.4332000017)

   2 primitive cells build up your supercell.

 Subroutine MAGSYM returns: Found 48 space group operations
 (whereof 48 operations were pure point group operations)
 out of a pool of 48 trial space group operations
 (whereof 48 operations were pure point group operations)
 and found also     2 'primitive' translations

The magnetic configuration has the point symmetry O_h .

 KPOINTS: K-POINTS

Automatic generation of k-mesh.
Space group operators:
 irot       det(A)        alpha          n_x          n_y          n_z        tau_x        tau_y        tau_z
    1     1.000000     0.000000     1.000000     0.000000     0.000000     0.000000     0.000000     0.000000
    2    -1.000000     0.000000     1.000000     0.000000     0.000000     0.000000     0.000000     0.000000
    3     1.000000   120.000000    -0.577350    -0.577350    -0.577350     0.000000     0.000000     0.000000
    4    -1.000000   120.000000    -0.577350    -0.577350    -0.577350     0.000000     0.000000     0.000000
    5     1.000000   120.000000     0.577350     0.577350     0.577350     0.000000     0.000000     0.000000
    6    -1.000000   120.000000     0.577350     0.577350     0.577350     0.000000     0.000000     0.000000
    7     1.000000    90.000000     0.000000     0.000000    -1.000000     0.000000     0.000000     0.000000
    8    -1.000000    90.000000     0.000000     0.000000    -1.000000     0.000000     0.000000     0.000000
    9     1.000000   180.000000     0.000000     0.707107     0.707107     0.000000     0.000000     0.000000
   10    -1.000000   180.000000     0.000000     0.707107     0.707107     0.000000     0.000000     0.000000
   11     1.000000    90.000000     0.000000     1.000000     0.000000     0.000000     0.000000     0.000000
   12    -1.000000    90.000000     0.000000     1.000000     0.000000     0.000000     0.000000     0.000000
   13     1.000000   180.000000     0.000000     0.000000     1.000000     0.000000     0.000000     0.000000
   14    -1.000000   180.000000     0.000000     0.000000     1.000000     0.000000     0.000000     0.000000
   15     1.000000   120.000000    -0.577350     0.577350     0.577350     0.000000     0.000000     0.000000
   16    -1.000000   120.000000    -0.577350     0.577350     0.577350     0.000000     0.000000     0.000000
   17     1.000000   120.000000    -0.577350     0.577350    -0.577350     0.000000     0.000000     0.000000
   18    -1.000000   120.000000    -0.577350     0.577350    -0.577350     0.000000     0.000000     0.000000
   19     1.000000    90.000000     0.000000     0.000000     1.000000     0.000000     0.000000     0.000000
   20    -1.000000    90.000000     0.000000     0.000000     1.000000     0.000000     0.000000     0.000000
   21     1.000000    90.000000    -1.000000     0.000000     0.000000     0.000000     0.000000     0.000000
   22    -1.000000    90.000000    -1.000000     0.000000     0.000000     0.000000     0.000000     0.000000
   23     1.000000   180.000000     0.707107     0.000000     0.707107     0.000000     0.000000     0.000000
   24    -1.000000   180.000000     0.707107     0.000000     0.707107     0.000000     0.000000     0.000000
   25     1.000000   120.000000     0.577350    -0.577350     0.577350     0.000000     0.000000     0.000000
   26    -1.000000   120.000000     0.577350    -0.577350     0.577350     0.000000     0.000000     0.000000
   27     1.000000   120.000000    -0.577350    -0.577350     0.577350     0.000000     0.000000     0.000000
   28    -1.000000   120.000000    -0.577350    -0.577350     0.577350     0.000000     0.000000     0.000000
   29     1.000000   180.000000     1.000000     0.000000     0.000000     0.000000     0.000000     0.000000
   30    -1.000000   180.000000     1.000000     0.000000     0.000000     0.000000     0.000000     0.000000
   31     1.000000    90.000000     0.000000    -1.000000     0.000000     0.000000     0.000000     0.000000
   32    -1.000000    90.000000     0.000000    -1.000000     0.000000     0.000000     0.000000     0.000000
   33     1.000000   180.000000     0.707107     0.707107     0.000000     0.000000     0.000000     0.000000
   34    -1.000000   180.000000     0.707107     0.707107     0.000000     0.000000     0.000000     0.000000
   35     1.000000    90.000000     1.000000     0.000000     0.000000     0.000000     0.000000     0.000000
   36    -1.000000    90.000000     1.000000     0.000000     0.000000     0.000000     0.000000     0.000000
   37     1.000000   120.000000     0.577350    -0.577350    -0.577350     0.000000     0.000000     0.000000
   38    -1.000000   120.000000     0.577350    -0.577350    -0.577350     0.000000     0.000000     0.000000
   39     1.000000   180.000000     0.000000     1.000000     0.000000     0.000000     0.000000     0.000000
   40    -1.000000   180.000000     0.000000     1.000000     0.000000     0.000000     0.000000     0.000000
   41     1.000000   120.000000     0.577350     0.577350    -0.577350     0.000000     0.000000     0.000000
   42    -1.000000   120.000000     0.577350     0.577350    -0.577350     0.000000     0.000000     0.000000
   43     1.000000   180.000000     0.000000    -0.707107     0.707107     0.000000     0.000000     0.000000
   44    -1.000000   180.000000     0.000000    -0.707107     0.707107     0.000000     0.000000     0.000000
   45     1.000000   180.000000     0.707107    -0.707107     0.000000     0.000000     0.000000     0.000000
   46    -1.000000   180.000000     0.707107    -0.707107     0.000000     0.000000     0.000000     0.000000
   47     1.000000   180.000000     0.707107     0.000000    -0.707107     0.000000     0.000000     0.000000
   48    -1.000000   180.000000     0.707107     0.000000    -0.707107     0.000000     0.000000     0.000000

 Subroutine IBZKPT returns following result:

 Found     56 irreducible k-points:

 Following reciprocal coordinates:
            Coordinates               Weight
  0.000000  0.000000  0.000000      1.000000
  0.090909  0.000000  0.000000      6.000000
  0.181818  0.000000  0.000000      6.000000
  0.272727  0.000000  0.000000      6.000000
  0.363636  0.000000  0.000000      6.000000
  0.454545  0.000000  0.000000      6.000000
  0.090909  0.090909  0.000000     12.000000
  0.181818  0.090909  0.000000     24.000000
  0.272727  0.090909  0.000000     24.000000
  0.363636  0.090909  0.000000     24.000000
  0.454545  0.090909  0.000000     24.000000
  0.181818  0.181818  0.000000     12.000000
  0.272727  0.181818  0.000000     24.000000
  0.363636  0.181818  0.000000     24.000000
  0.454545  0.181818  0.000000     24.000000
  0.272727  0.272727  0.000000     12.000000
  0.363636  0.272727  0.000000     24.000000
  0.454545  0.272727  0.000000     24.000000
  0.363636  0.363636  0.000000     12.000000
  0.454545  0.363636  0.000000     24.000000
  0.454545  0.454545  0.000000     12.000000
  0.090909  0.090909  0.090909      8.000000
  0.181818  0.090909  0.090909     24.000000
  0.272727  0.090909  0.090909     24.000000
  0.363636  0.090909  0.090909     24.000000
  0.454545  0.090909  0.090909     24.000000
  0.181818  0.181818  0.090909     24.000000
  0.272727  0.181818  0.090909     48.000000
  0.363636  0.181818  0.090909     48.000000
  0.454545  0.181818  0.090909     48.000000
  0.272727  0.272727  0.090909     24.000000
  0.363636  0.272727  0.090909     48.000000
  0.454545  0.272727  0.090909     48.000000
  0.363636  0.363636  0.090909     24.000000
  0.454545  0.363636  0.090909     48.000000
  0.454545  0.454545  0.090909     24.000000
  0.181818  0.181818  0.181818      8.000000
  0.272727  0.181818  0.181818     24.000000
  0.363636  0.181818  0.181818     24.000000
  0.454545  0.181818  0.181818     24.000000
  0.272727  0.272727  0.181818     24.000000
  0.363636  0.272727  0.181818     48.000000
  0.454545  0.272727  0.181818     48.000000
  0.363636  0.363636  0.181818     24.000000
  0.454545  0.363636  0.181818     48.000000
  0.454545  0.454545  0.181818     24.000000
  0.272727  0.272727  0.272727      8.000000
  0.363636  0.272727  0.272727     24.000000
  0.454545  0.272727  0.272727     24.000000
[...]

 position of ions in fractional coordinates (direct lattice)
   0.00000000  0.00000000  0.00000000
   0.50000000  0.50000000  0.50000000

 position of ions in cartesian coordinates  (Angst):
   0.00000000  0.00000000  0.00000000
   1.43320000  1.43320000  1.43320000

 k-point  1 :   0.0000 0.0000 0.0000  plane waves:    1021
 k-point  2 :   0.0909 0.0000 0.0000  plane waves:     993
 k-point  3 :   0.1818 0.0000 0.0000  plane waves:     985
 k-point  4 :   0.2727 0.0000 0.0000  plane waves:     984
 k-point  5 :   0.3636 0.0000 0.0000  plane waves:     992
 k-point  6 :   0.4545 0.0000 0.0000  plane waves:     996
 k-point  7 :   0.0909 0.0909 0.0000  plane waves:     989
 k-point  8 :   0.1818 0.0909 0.0000  plane waves:     993
 k-point  9 :   0.2727 0.0909 0.0000  plane waves:     990
 k-point 10 :   0.3636 0.0909 0.0000  plane waves:     990
 k-point 11 :   0.4545 0.0909 0.0000  plane waves:     990
 k-point 12 :   0.1818 0.1818 0.0000  plane waves:     985
 k-point 13 :   0.2727 0.1818 0.0000  plane waves:     994
 k-point 14 :   0.3636 0.1818 0.0000  plane waves:     991
 k-point 15 :   0.4545 0.1818 0.0000  plane waves:     983
 k-point 16 :   0.2727 0.2727 0.0000  plane waves:     989
 k-point 17 :   0.3636 0.2727 0.0000  plane waves:     988
 k-point 18 :   0.4545 0.2727 0.0000  plane waves:     985
 k-point 19 :   0.3636 0.3636 0.0000  plane waves:     989
 k-point 20 :   0.4545 0.3636 0.0000  plane waves:     993
 k-point 21 :   0.4545 0.4545 0.0000  plane waves:    1000
 k-point 22 :   0.0909 0.0909 0.0909  plane waves:     985
 k-point 23 :   0.1818 0.0909 0.0909  plane waves:     983
 k-point 24 :   0.2727 0.0909 0.0909  plane waves:     988
 k-point 25 :   0.3636 0.0909 0.0909  plane waves:     990
 k-point 26 :   0.4545 0.0909 0.0909  plane waves:     994
 k-point 27 :   0.1818 0.1818 0.0909  plane waves:     982
 k-point 28 :   0.2727 0.1818 0.0909  plane waves:     989
 k-point 29 :   0.3636 0.1818 0.0909  plane waves:     990
 k-point 30 :   0.4545 0.1818 0.0909  plane waves:     986
 k-point 31 :   0.2727 0.2727 0.0909  plane waves:     994
 k-point 32 :   0.3636 0.2727 0.0909  plane waves:     991
 k-point 33 :   0.4545 0.2727 0.0909  plane waves:     992
 k-point 34 :   0.3636 0.3636 0.0909  plane waves:     993
 k-point 35 :   0.4545 0.3636 0.0909  plane waves:     992
 k-point 36 :   0.4545 0.4545 0.0909  plane waves:     999
 k-point 37 :   0.1818 0.1818 0.1818  plane waves:     985
 k-point 38 :   0.2727 0.1818 0.1818  plane waves:     988
 k-point 39 :   0.3636 0.1818 0.1818  plane waves:     993
 k-point 40 :   0.4545 0.1818 0.1818  plane waves:     990
 k-point 41 :   0.2727 0.2727 0.1818  plane waves:     992
 k-point 42 :   0.3636 0.2727 0.1818  plane waves:     990
 k-point 43 :   0.4545 0.2727 0.1818  plane waves:     995
 k-point 44 :   0.3636 0.3636 0.1818  plane waves:     984
 k-point 45 :   0.4545 0.3636 0.1818  plane waves:     989
 k-point 46 :   0.4545 0.4545 0.1818  plane waves:     999
 k-point 47 :   0.2727 0.2727 0.2727  plane waves:     997
 k-point 48 :   0.3636 0.2727 0.2727  plane waves:     988
 k-point 49 :   0.4545 0.2727 0.2727  plane waves:     988
 k-point 50 :   0.3636 0.3636 0.2727  plane waves:     992
 k-point 51 :   0.4545 0.3636 0.2727  plane waves:     992
 k-point 52 :   0.4545 0.4545 0.2727  plane waves:     993
 k-point 53 :   0.3636 0.3636 0.3636  plane waves:     994
 k-point 54 :   0.4545 0.3636 0.3636  plane waves:     996
 k-point 55 :   0.4545 0.4545 0.3636  plane waves:     999
 k-point 56 :   0.4545 0.4545 0.4545  plane waves:     986

 maximum and minimum number of plane-waves per node :      1021      982

 maximum number of plane-waves:      1021
 maximum index in each direction:
   IXMAX=    6   IYMAX=    6   IZMAX=    6
   IXMIN=   -6   IYMIN=   -6   IZMIN=   -6

 WARNING: aliasing errors must be expected set NGX to  26 to avoid them
 WARNING: aliasing errors must be expected set NGY to  26 to avoid them
 WARNING: aliasing errors must be expected set NGZ to  26 to avoid them
 aliasing errors are usually negligible using standard VASP settings
 and one can safely disregard these warnings

 serial   3D FFT for wavefunctions
 parallel 3D FFT for charge:
    minimum data exchange during FFTs selected (reduces bandwidth)

 Broyden mixing: mesh for mixing (old mesh)
   NGX = 13   NGY = 13   NGZ = 13
  (NGX  = 40   NGY  = 40   NGZ  = 40)
  gives a total of   2197 points

 initial charge density was supplied:
 charge density of overlapping atoms calculated
 number of electron      16.0000000 magnetization       2.0000000
 keeping initial charge density in first step

 Maximum index for non-local projection operator         3191
 Maximum index for augmentation-charges         1375 (set IRDMAX)

 First call to EWALD:  gamma=   0.618
 Maximum number of real-space cells 3x 3x 3
 Maximum number of reciprocal cells 3x 3x 3

 FEWALD executed in parallel

----------------------------------------- Iteration    1(   1)  ---------------------------------------

 eigenvalue-minimisations  :  5760
 total energy-change (2. order) : 0.6063678E+02  (-0.8996262E+03)
 number of electron      16.0000000 magnetization       2.0000000
 augmentation part       16.0000000 magnetization       2.0000000

 Free energy of the ion-electron system (eV)
  alpha Z        PSCENC =       117.38543817
  Ewald energy   TEWEN  =     -1170.06279329
  -Hartree energ DENC   =      -228.58347345
  -exchange      EXHF   =         0.00000000
  -V(xc)+E(xc)   XCENC  =         7.87006596
  PAW double counting   =      1109.45345578    -1124.86183816
  entropy T*S    EENTRO =         0.00015686
  eigenvalues    EBANDS =       160.80631911
  atomic energy  EATOM  =      1188.62944521
  free energy    TOTEN  =        60.63677620 eV

  energy without entropy =       60.63661934  energy(sigma->0) =       60.63672391

[...]

 eigenvalue-minimisations  :  5700
 total energy-change (2. order) :-0.7640547E+02  (-0.6971027E+02)
 number of electron      16.0000000 magnetization       2.0000000
 augmentation part       16.0000000 magnetization       2.0000000

[...]

 Broyden mixing:
  rms(total) = 0.15804E+01    rms(broyden)= 0.15804E+01
  rms(prec ) = 0.37530E+01
  weight for this iteration     100.00

[...]

 eigenvalues of (default mixing * dielectric matrix)
  average eigenvalue GAMMA=   0.4931
  0.4931

[...]

 Broyden mixing:
  rms(total) = 0.31155E-03    rms(broyden)= 0.31155E-03
  rms(prec ) = 0.31614E-03
  weight for this iteration     100.00

[...]

 Free energy of the ion-electron system (eV)
  alpha Z        PSCENC =       117.38543817
  Ewald energy   TEWEN  =     -1170.06279329
  -Hartree energ DENC   =      -195.73331877
  -exchange      EXHF   =         0.00000000
  -V(xc)+E(xc)   XCENC  =         8.54911717
  PAW double counting   =      1410.17634573    -1428.08800749
  entropy T*S    EENTRO =        -0.00043187
  eigenvalues    EBANDS =        52.69035081
  atomic energy  EATOM  =      1188.62944521
  free energy    TOTEN  =       -16.45385433 eV

  energy without entropy =      -16.45342247  energy(sigma->0) =      -16.45371038

 average (electrostatic) potential at core
  the test charge radii are     1.0103
  (the norm of the test charge is              1.0000)
       1 -43.6375       2 -43.6375

 E-fermi :   5.4046     XC(G=0): -12.9130     alpha+bet :-13.1633

 spin component 1

 k-point     1 :       0.0000    0.0000    0.0000
  band No.  band energies     occupation
      1      -2.7652      1.00000
      2       0.8279      1.00000
      3       0.8279      1.00000
      4       3.1959      1.00000
      5       3.1959      1.00000
      6       3.1959      1.00000
      7       4.3844      1.00000
      8       4.3844      1.00000
      9       5.4812      0.01925
     10       5.4812      0.01925
     11       5.4812      0.01925
     12      15.1423      0.00000
     13      15.1423      0.00000
     14      15.1423      0.00000
     15      20.7579      0.00000
     16      20.7579      0.00000
     17      25.4224      0.00000
     18      30.1291      0.00000
     19      30.1291      0.00000
     20      30.1291      0.00000
     21      34.9913      0.00000
     22      34.9913      0.00000
     23      37.2107      0.00000
     24      37.2579      0.00000

[...]

 spin component 2

[...]

 k-point    56 :       0.4545    0.4545    0.4545
  band No.  band energies     occupation
      1       3.6207      1.00000
      2       3.7462      1.00000
      3       3.7462      1.00000
      4       3.8395      1.00000
      5       3.8720      1.00000
      6       3.8720      1.00000
      7       7.4160     -0.00000
      8       7.4160     -0.00000
      9       7.4187     -0.00000
     10       7.4187     -0.00000
     11      12.9574      0.00000
     12      14.0233      0.00000
     13      14.0233      0.00000
     14      15.6098      0.00000
     15      15.6862      0.00000
     16      15.6862      0.00000
     17      17.0462      0.00000
     18      17.6949      0.00000
     19      40.9598      0.00000
     20      40.9598      0.00000
     21      41.1709      0.00000
     22      42.7057      0.00000
     23      42.7062      0.00000
     24      44.2515      0.00000

 soft charge-density along one line, spin component           1
         0         1         2         3         4         5         6         7         8         9
 total charge-density along one line

 soft charge-density along one line, spin component           2
         0         1         2         3         4         5         6         7         8         9
 total charge-density along one line

------------------------ aborting loop because EDIFF is reached ----------------------------------------

 total charge

# of ion     s       p       d       tot
  1        0.473   0.508   6.217   7.198
  2        0.473   0.508   6.217   7.198
tot        0.946   1.015  12.434  14.395

 magnetization (x)

[...]

  DFT-D2 method for vdW energy calculation

  Parameters of vdW forcefield:
         C6(Jnm^6/mol)     R0(A)
   Fe       2.600          1.400

  IVDW =   1
  VDW_RADIUS =    40.000 A
  VDW_S6 =     0.750
  VDW_SR =     1.000
  VDW_D =    20.000
  LVDW_EWALD = F

  Number of pair interactions contributing to vdW energy:   34020
  Edisp (eV):   -0.34819

  FORCE on cell =-STRESS in cart. coord.  units (eV):
  Direction    XX          YY          ZZ          XY          YZ          ZX
  Alpha Z   117.38544   117.38544   117.38544
  Ewald    -390.02090  -390.02090  -390.02090     0.00000     0.00000     0.00000
  Hartree    65.24482    65.24482    65.24482    -0.00000    -0.00000    -0.00000
  E(xc)     -79.26637   -79.26637   -79.26637     0.00000    -0.00000    -0.00000
  Local     115.92634   115.92634   115.92634    -0.00000     0.00000    -0.00000
  n-local   -55.27822   -52.50907   -49.80298     2.57115    -0.79559     0.70231
  augment    77.54860    77.54860    77.54860    -0.00000     0.00000     0.00000
  Kinetic   147.40555   144.45556   142.58019     2.47613    -0.47601     0.05650
  Fock        0.00000     0.00000     0.00000     0.00000     0.00000     0.00000
  vdW         0.00346     0.00346     0.00346    -0.00000    -0.00000    -0.00000
  Total      -0.89494    -0.89494    -0.89494     0.00000     0.00000    -0.00000
  in kB     -60.88268   -60.88268   -60.88268     0.00000     0.00000    -0.00000

 VOLUME and BASIS-vectors are now :
  energy-cutoff  :      700.00
  volume of cell :       23.55
      direct lattice vectors                 reciprocal lattice vectors
     2.866400003  0.000000000  0.000000000     0.348869662  0.000000000  0.000000000
     0.000000000  2.866400003  0.000000000     0.000000000  0.348869662  0.000000000
     0.000000000  0.000000000  2.866400003     0.000000000  0.000000000  0.348869662

  length of vectors
     2.866400003  2.866400003  2.866400003     0.348869662  0.348869662  0.348869662

 FORCES acting on ions
    electron-ion (+dipol)            ewald-force                    non-local-force                 convergence-correction
   -.255E-07 -.255E-07 -.255E-07   0.492E-07 0.492E-07 0.492E-07   0.000E+00 0.000E+00 0.000E+00   -.168E-10 -.168E-10 -.168E-10
   0.196E-07 0.196E-07 0.196E-07   -.492E-07 -.492E-07 -.492E-07   0.000E+00 0.129E-25 0.000E+00   0.185E-10 0.185E-10 0.185E-10
   -.595E-08 -.595E-08 -.595E-08   0.491E-15 -.114E-14 0.133E-14   0.000E+00 0.129E-25 0.000E+00   0.165E-11 0.164E-11 0.163E-11

 POSITION                                       TOTAL-FORCE (eV/Angst)
      0.00000      0.00000      0.00000         0.000000      0.000000      0.000000
      1.43320      1.43320      1.43320         0.000000      0.000000      0.000000
    total drift:                               -0.000000     -0.000000     -0.000000

  FREE ENERGIE OF THE ION-ELECTRON SYSTEM (eV)
  free  energy   TOTEN  =       -16.80204257 eV

  energy  without entropy=      -16.80161070  energy(sigma->0) =      -16.80189862

 Quasi-Newton relaxation of ions (Broydens 2nd method)
  g(Force)  = 0.000E+00   g(Stress)= 0.116E-01

 Reset! Starting new Quasi-Newton update for ions

[...]

  free energy =  -0.164925327279E+02  energy without entropy=  -0.164931681927E+02

[...]

 d Force = 0.0000000E+00[ 0.000E+00, 0.000E+00]  d Energy = 0.9978435E-02-0.998E-02
 d Force = 0.0000000E+00[ 0.000E+00, 0.000E+00]  d Ewald  = 0.5073562E+01-0.507E+01

[...]

 retain information from N=  1 steps
 eigenvalues of (default step * inverse Hessian matrix)
  average eigenvalue of G=   3.0311
 eigenvalue spectrum of G is  3.0311

[...]

 d Force = 0.0000000E+00[ 0.000E+00, 0.000E+00]  d Energy = 0.7365042E-02-0.737E-02
 d Force = 0.0000000E+00[ 0.000E+00, 0.000E+00]  d Ewald  = 0.1044175E+02-0.104E+02

[...]

 FEWALD executed in parallel

[...]

 eigenvalue-minimisations  :  3817
 total energy-change (2. order) :-0.2457377E-06  (-0.9671448E-09)
 number of electron      16.0000037 magnetization       4.4125136
 augmentation part        8.2985761 magnetization       3.6158146

 eigenvalues of (default mixing * dielectric matrix)
  average eigenvalue GAMMA=   1.2620
  2.6687  2.2638  1.0839  0.8203  0.6096  0.6939  0.6939

[...]

----------------------------------------- Iteration    4(   9)  ---------------------------------------

 eigenvalue-minimisations  :  2923
 total energy-change (2. order) : 0.1624107E-07  (-0.1059574E-09)
 number of electron      16.0000037 magnetization       4.4125136
 augmentation part        8.2985761 magnetization       3.6158146

  free energy =  -0.164714535355E+02  energy without entropy=  -0.164718711233E+02

------------------------ aborting loop because EDIFF is reached ----------------------------------------

[...]

  Number of pair interactions contributing to vdW energy:   35256
  Edisp (eV):   -0.34804

  FORCE on cell =-STRESS in cart. coord.  units (eV):
  Direction    XX          YY          ZZ          XY          YZ          ZX
  Alpha Z   121.75137   121.75137   121.75137
  Ewald    -394.79753  -394.79753  -394.79753     0.00000     0.00000     0.00000
  Hartree    63.36127    63.36127    63.36127    -0.00000    -0.00000    -0.00000
  E(xc)     -79.46753   -79.46753   -79.46753    -0.00000    -0.00000    -0.00000
  Local     117.97273   117.97273   117.97273    -0.00000    -0.00000    -0.00000
  n-local   -54.82645   -51.87025   -49.10056     2.50991    -0.82315     0.67152
  augment    77.39447    77.39447    77.39447     0.00000     0.00000     0.00000
  Kinetic   148.27047   145.27252   143.59955     2.93134    -0.45447     0.16490
  Fock        0.00000     0.00000     0.00000     0.00000     0.00000     0.00000
  vdW         0.00402     0.00402     0.00402    -0.00000    -0.00000    -0.00000
  Total       0.00055     0.00055     0.00055    -0.00000     0.00000     0.00000
  in kB       0.03888     0.03888     0.03888    -0.00000     0.00000     0.00000

  FREE ENERGIE OF THE ION-ELECTRON SYSTEM (eV)
  free  energy   TOTEN  =       -16.81949621 eV

  energy  without entropy=      -16.81991379  energy(sigma->0) =      -16.81963540

 d Force = 0.0000000E+00[ 0.000E+00, 0.000E+00]  d Energy = 0.1101568E-03-0.110E-03
 d Force = 0.0000000E+00[ 0.000E+00, 0.000E+00]  d Ewald  =-0.1185432E+01 0.119E+01

 Quasi-Newton relaxation of ions (Broydens 2nd method)
  g(Force)  = 0.717E-57   g(Stress)= 0.439E-08

 retain information from N=  1 steps
 eigenvalues of (default step * inverse Hessian matrix)
  average eigenvalue of G=   2.7091
 eigenvalue spectrum of G is  2.7091

 reached required accuracy - stopping structural energy minimisation
 writing wavefunctions

 total charge

[...]

 magnetization (x)

# of ion     s       p       d       tot
  1       -0.012  -0.050   2.262   2.200
  2       -0.012  -0.050   2.262   2.200
tot       -0.024  -0.100   4.525   4.400